! Created with skrf 1.12.0 (http://scikit-rf.org).
# GHz S DB R 50.0 
!freq dBS11 angS11 dBS21 angS21 dBS12 angS12 dBS22 angS22
0.01 -27.28886369396823 3.4520939581829544 -0.38293722130028307 -0.18062767788384873 -0.3829372213002851 -0.1806276778825487 -27.288862700560365 3.4519628898426857
0.02 -27.238349913045017 6.876694494918309 -0.38311715749385805 -0.3612359820573169 -0.38311715749385805 -0.36123598205661683 -27.2383424955014 6.876425948431364
0.1 -25.867109113686375 30.777448783586188 -0.3888002190362225 -1.8032881365517426 -0.3888002190362225 -1.8032881365517428 -25.8669690064762 30.775255536474784
0.2 -23.182898668943515 48.84307515421886 -0.40575415172989654 -3.590604141766447 -0.4057541517298956 -3.590604141766447 -23.182783971693187 48.83625907789019
0.3 -20.680672173088944 57.99608509747443 -0.43200656543210453 -5.353725138847879 -0.4320065654321036 -5.353725138847877 -20.68110648232978 57.98459279161253
0.4 -18.588481197161983 62.67220849737409 -0.466054294060676 -7.091860493518528 -0.466054294060676 -7.091860493517527 -18.589853549840527 62.658944569588535
0.5 -16.849732438620304 65.02918712599896 -0.5070291904111222 -8.807023692341668 -0.5070291904111242 -8.807023692341666 -16.85199323697175 65.01798075052552
0.6 -15.385610372866466 66.08913417104544 -0.5545152504804456 -10.50100294185886 -0.5545152504804466 -10.50100294185886 -15.388379221228607 66.08220816183099
0.7 -14.133573253055511 66.37379706616869 -0.6083046253937998 -12.174616597594444 -0.6083046253937998 -12.17461659759444 -14.136452099121739 66.37125478729952
0.8 -13.047771581799104 66.17038565145322 -0.6682582895852467 -13.827846240982288 -0.6682582895852489 -13.827846240982291 -13.050513294856609 66.17121591197635
0.9 -12.094771717975645 65.64739261000385 -0.7342402203738523 -15.46012426318164 -0.7342402203738523 -15.46012426318164 -12.097276210843406 65.65041770281248
1.0 -11.249863842319602 64.90902663929134 -0.8060914914652959 -17.07059947779452 -0.8060914914651974 -17.070599477794516 -11.252119132674448 64.91331088151726
1.1 -10.494444260221611 64.02267154396593 -0.8836257570646873 -18.658330787438256 -0.8836257570646862 -18.658330787438256 -10.496477704858272 64.02758587781307
1.2 -9.814232718636879 63.03358161656393 -0.9666339188372206 -20.222405637492585 -0.9666339188372215 -20.22240563749259 -9.816083308733319 63.03874485585147
1.3 -9.198061560247016 61.97314467824424 -1.0548911760409612 -21.76200267177713 -1.0548911760409623 -21.762002671777132 -9.199767065848528 61.97834627745299
1.4 -8.637045122417074 60.86373223273629 -1.1481636114532414 -23.276419720517197 -1.1481636114532425 -23.276419720517197 -8.638637280633812 60.86886936313484
1.5 -8.124001446767398 59.72165772871264 -1.2462134940751897 -24.765082288096593 -1.2462134940751897 -24.76508228809659 -8.125504952615211 59.72669115047572
1.6 -7.653042836319862 58.55904442470399 -1.3488032842602762 -26.227541795791748 -1.3488032842602762 -26.227541795791744 -7.654475925541 58.56396963115131
1.7 -7.219280924007583 57.38504215403407 -1.4556985673887772 -27.663468812500707 -1.4556985673887786 -27.66346881250071 -7.22065649586992 57.38987130285247
1.8 -6.81861061880886 56.206642516803655 -1.5666701686730087 -29.07264411005091 -1.5666701686720075 -29.072644110050916 -6.819937432568811 56.21139355280331
1.9 -6.44754927769217 55.02923897458596 -1.6814956624796806 -30.454949031734355 -1.6814956624796817 -30.454949031734362 -6.448833034710794 55.03392941830999
2.0 -6.103115176869613 53.857020487945476 -1.7999604395101618 -31.81035592392014 -1.799960439510163 -31.81035592392015 -6.104359426964667 53.861664202151296
2.1 -5.78273439132238 52.693253864919704 -1.9218584514278405 -33.138918983613 -1.9218584514278405 -33.13891898361301 -5.783941256959963 52.69785968975167
2.2 -5.484168517730854 51.54049005350344 -2.0469927186239327 -34.440765665847515 -2.046992718623932 -34.440765665847515 -5.485339251877898 51.54506158363017
2.3 -5.205457905143093 50.400717416103184 -2.1751756618672067 -35.71608868866712 -2.175175661867206 -35.716088688667114 -5.20659330614879 50.40525344224207
2.4 -4.94487657409937 49.275477376125586 -2.3062293008056347 -36.96513862281738 -2.306229300805633 -36.96513862281738 -4.945977282162886 49.27997267754688
2.5 -4.700896051920011 48.16595291922854 -2.439985349800266 -38.188217032743125 -2.439985349800266 -38.18821703274313 -4.701962750175789 48.17039920293093
2.6 -4.472156085249918 47.073037215688316 -2.576285232960864 -39.38567012985055 -2.5762852329608648 -39.385670129850546 -4.473189625955801 47.077424071953416
2.7 -4.257440711897514 45.997387481611604 -2.714980034391145 -40.557882900818214 -2.714980034391146 -40.55788290081822 -4.258442185361163 46.001703276441546
2.8 -4.055658548983993 44.93946773542077 -2.855930395639424 -41.70527367799722 -2.855930395639424 -41.705273677997226 -4.056629310028751 44.94370039519602
2.9 -3.8658264276621654 43.899583097392025 -2.999006369781334 -42.82828912414807 -2.999006369781334 -42.82828912414807 -3.8667680917776392 43.90372076484843
3.0 -3.687055706192069 42.87790757226442 -3.1440872397131803 -43.92739960804461 -3.1440872397131803 -43.92739960804461 -3.6879701251487313 42.88193912878412
3.1 -3.5185407433506715 41.874506753374526 -3.2910613071054695 -45.003094951050656 -3.2910613071054695 -45.003094951050656 -3.519429967926464 41.878422212792
3.2 -3.3595491272148243 40.88935652591643 -3.4398256576314568 -46.05588052694586 -3.439825657631455 -46.05588052694586 -3.360415362941537 40.893147311178815
3.3 -3.20941334035681 39.922358585426856 -3.5902859074762423 -47.086273698843286 -3.590285907476241 -47.086273698843286 -3.2102589006369184 39.926017702591054
3.4 -3.0675236083105544 38.97335339532913 -3.7423559356946234 -48.094800577873265 -3.742355935694626 -48.09480057787326 -3.0683508680732308 38.97687552079761
3.5 -2.9333217291198714 38.04213106574899 -3.8959576065576713 -49.08199308801732 -3.895957606557672 -49.08199308801732 -2.9341330811626216 38.04551256230238
3.6 -2.806295721340245 37.12844052949161 -4.051020485697138 -50.04838632198207 -4.051020485698138 -50.04838632198207 -2.807093536763094 37.13167940594095
3.7 -2.6859751589721457 36.23199731126964 -4.2074815534955885 -50.99451617221751 -4.2074815534955885 -50.994516172217516 -2.6867617524771994 36.235093139004555
3.8 -2.5719270862206347 35.35249012597222 -4.365284918822595 -51.920917221067654 -4.365284918822595 -51.92091722106766 -2.572704686656127 35.35544392406278
3.9 -2.463752424447021 34.48958649487187 -4.5243815359233 -52.82812087376273 -4.524381535923304 -52.82812087376273 -2.4645231506106455 34.49240059367397
4.0 -2.3610827991499455 33.6429375332389 -4.6847289268904095 -53.716653717874664 -4.684728926890408 -53.71665371786466 -2.3618486406660963 33.64561542472342
4.1 -2.2635777272420086 32.81218203479901 -4.846290911887924 -54.58703609259841 -4.846290911887924 -54.58703609259841 -2.264340530181665 32.81472821640603
4.2 -2.1709221149250566 31.996949956449004 -5.009037348969159 -55.43978085186325 -5.009037348969159 -55.439780851863254 -2.1716835717343903 31.999369773678165
4.3 -2.0828240245770413 31.196865389285733 -5.172943885061328 -56.27539230490988 -5.172943885061327 -56.27539230490987 -2.083585667851979 31.199164881284638
4.4 -1.9990126756844875 30.411549088256205 -5.337991719447565 -57.09436531916122 -5.337991719447565 -57.09436531916122 -1.999775875298261 30.413734839448068
4.5 -1.919236650262409 29.640620621268354 -5.504167380825811 -57.897184570107385 -5.504167380825811 -57.897184570107385 -1.9200026133784454 29.642699621200947
4.6 -1.843262277670438 28.883700189456288 -5.671462518848185 -58.68432392405832 -5.671462518848185 -58.684323924058305 -1.844032051185728 28.885679702513436
4.7 -1.770872177402127 28.140410163016057 -5.839873710834641 -59.45624594004132 -5.839873710834641 -59.456245940041335 -1.7716466523989078 28.142297608783434
4.8 -1.7018639414675487 27.410376370372138 -6.009402284243822 -60.21340147810549 -6.009402284243822 -60.21340147810549 -1.702643859297771 27.412179215348516
4.9 -1.6360489405718723 26.693229173546932 -6.180054155310862 -60.95622940201887 -6.180054155310862 -60.95622940201888 -1.6368349002239935 26.694954834162555
5.0 -1.573251240387195 25.98860435807969 -6.351839684215062 -61.685156365060976 -6.351839684215063 -61.68515636506096 -1.574043706850232 25.990260114962762
5.1 -1.5133066160458741 25.296143862002882 -6.524773547015858 -62.40059666873827 -6.524773547015857 -62.40059666873827 -1.5141059293869943 25.29773678519553
5.2 -1.456061654477259 24.615496365347294 -6.698874624580778 -63.10295218460751 -6.698874624580777 -63.10295218460751 -1.456868039427643 24.617033249971854
5.3 -1.4013729355229985 23.946317758828453 -6.8741659086535005 -63.7926123306582 -6.8741659086535005 -63.7926123306582 -1.4021865113698198 23.947805070665424
5.4 -1.3491062838610142 23.28827150806977 -7.050674425244152 -64.46995409400323 -7.050674425244152 -64.46995409400323 -1.349927074475271 23.289715338377995
5.5 -1.2991360847051905 22.641028927458507 -7.2284311754857535 -65.13534209263453 -7.228431175485753 -65.13534209263453 -1.2999640285769576 22.64243495649878
5.6 -1.2513446570644047 22.00426937636288 -7.407471094146407 -65.78912866948853 -7.407471094146407 -65.78912866948853 -1.2521796172370723 22.005642844805404
5.7 -1.2056216790673762 21.37768038834887 -7.587833026009733 -66.43165401272483 -7.587833026009731 -66.43165401272483 -1.2064634528603186 21.379026076075647
5.8 -1.161863660428611 20.760957743217308 -7.769559720408758 -67.0632462966199 -7.769559720408756 -67.0632462966199 -1.1627119888908244 20.7622799548099
5.9 -1.1199734577065965 20.153805490061654 -7.952697844238346 -67.68422183812699 -7.952697844238346 -67.68422183812699 -1.1208280347235569 20.15510804632493
6.0 -1.0798598284340961 19.555935928768147 -8.137298013881018 -68.29488526431217 -8.137298013881018 -68.29488526431217 -1.0807203094432467 19.557222163760663
6.1 -1.0414370206152266 18.96706955630027 -8.323414846563882 -68.8955296865858 -8.323414846563882 -68.8955296865858 -1.0423030309023975 18.968342319361682
6.2 -1.0046243944699356 18.386934983509764 -8.51110703178716 -69.48643687784822 -8.511107031787159 -69.4864368778482 -1.0054955369969754 18.388196645655803
6.3 -0.9693460735727575 17.815268827267108 -8.7004374235857 -70.06787744876806 -8.700437423585699 -70.06787744876804 -0.9702219363232993 17.81652129150239
6.4 -0.9355306228466204 17.251815582133975 -8.891473154555827 -70.64011102006124 -8.891473154555827 -70.64011102006124 -0.9364107856804984 17.253060297303154
6.5 -0.9031107511200732 16.696327475561045 -9.084285772720389 -71.20338638748815 -9.08428577272039 -71.20338638748815 -0.9039947921090641 16.69756545310849
6.6 -0.8720230361525395 16.14856430949388 -9.278951402519306 -71.75794167652687 -9.278951402519304 -71.75794167652687 -0.8729105374026168 16.149796142972264
6.7 -0.8422076702529263 15.608293291570288 -9.47555093142321 -72.30400448374981 -9.47555093142321 -72.30400448374981 -0.8430982232041571 15.60951917827827
6.8 -0.8136082247777942 15.075288858052062 -9.674170223906216 -72.84179200203106 -9.674170223906213 -72.84179200203106 -0.8145014349856322 15.076508622571305
6.9 -0.7861714319587499 14.549332490814246 -9.87490036479331 -73.3715111266223 -9.874900364793309 -73.3715111266223 -0.7870669233587384 14.550545610015941
7.0 -0.7598469826470748 14.030212530054841 -10.07783793432717 -73.89335853896404 -10.07783793432717 -73.89335853896404 -0.7607444013096919 14.031418159346018
7.1 -0.7345873386899521 13.51772398445805 -10.283085317606751 -74.40752076516023 -10.283085317606751 -74.40752076516023 -0.735486356076282 13.518920984827622
7.2 -0.7103475587676605 13.011668339923512 -10.490751051575327 -74.91417420560346 -10.490751051575327 -74.91417420560346 -0.7112478744975202 13.012855305588447
7.3 -0.6870851366235322 12.51185336826464 -10.700950212993288 -75.41348513206839 -10.700950212993284 -75.4134851320684 -0.6879864807705233 12.513028654616193
7.4 -0.6647598507094858 12.018092936638306 -10.91380485162606 -75.90560964820128 -10.91380485162606 -75.90560964820128 -0.6656619856404578 12.019254688178538
7.5 -0.6433336243572132 11.53020681855846 -11.129444473298571 -76.39069360867308 -11.12944447329857 -76.39069360867308 -0.6442363461355154 11.531352996647142
7.6 -0.6227703956573585 11.048020507296084 -11.348006578188441 -76.8688724919543 -11.348006578188446 -76.86887249195429 -0.6236735350308942 11.049148917478083
7.7 -0.6030359963009777 10.571365032057493 -11.56963726078824 -77.3402712206295 -11.56963726078824 -77.3402712206295 -0.603939419298741 10.5724733507008
7.8 -0.5840980386975092 10.100076777523311 -11.794491878526898 -77.80500392228956 -11.794491878526898 -77.80500392228956 -0.5850016468597404 10.10116257762775
7.9 -0.5659258107440486 9.633997307015791 -12.02273579763065 -78.26317362319969 -12.022735797630649 -78.26317362319969 -0.5668295410116033 9.635058083076649
8.0 -0.5484901776677112 9.172973189739638 -12.25454522568349 -78.71487186515193 -12.25454522568349 -78.71487186515192 -0.5493940019583416 9.174006381407207
8.1 -0.5317634904137382 8.716855832126821 -12.490108142247378 -79.16017823451017 -12.49010814224738 -79.16017823451017 -0.5326674149149366 8.71785884662505
8.2 -0.5157195000952599 8.265501313617118 -12.72962534053232 -79.59915979050632 -12.729625340532317 -79.59915979050632 -0.5166235643005594 8.266471546777527
8.3 -0.5003332780562229 7.818770226902883 -12.97331159536638 -80.03187037701636 -12.97331159536638 -80.03187037701636 -0.5012375535756214 7.81970508275377
8.4 -0.4855811411387927 7.376527522739457 -13.221396975225748 -80.45834979950452 -13.221396975225746 -80.45834979950452 -0.48648573031223674 7.3774244315696675
8.5 -0.4714405817778738 6.938642359361564 -13.47412831942496 -80.87862284470499 -13.474128319424963 -80.87862284470499 -0.4723456161196934 6.939498794229781
8.6 -0.4578902025746317 6.504987956501899 -13.731770904797209 -81.29269811630944 -13.731770904797209 -81.29269811631944 -0.4587958410785826 6.505801448155777
8.7 -0.4449096550305065 6.0754414540051185 -13.994610331275055 -81.70056665411953 -13.994610331275057 -81.70056665411953 -0.44581608236061254 6.0762096042212494
8.8 -0.43247958214464116 5.649883774990265 -14.26295466082128 -82.10220029715346 -14.26295466082128 -82.10220029715346 -0.43338700674000413 5.650604268332137
8.9 -0.42058156460588414 5.228199493498662 -14.537136850760135 -82.49754974250526 -14.537136850760135 -82.49754974250526 -0.4214902167225357 5.2288701075258
9.0 -0.40919807032680544 4.810276706570215 -14.817517531028939 -82.88654224040657 -14.81751753102894 -82.88654224040657 -0.41010820004023285 4.810895320544496
9.1 -0.3983124070888699 4.39600691065096 -15.104488184290066 -83.26907885240931 -15.10448818429007 -83.26907885240931 -0.3992242822786493 4.396571512776356
9.2 -0.38790867808578455 3.985284882234754 -15.398474800693302 -83.64503118136902 -15.398474800693307 -83.64503118137903 -0.3888225824214325 3.985793575515468
9.3 -0.377971740167306 3.5780085626587765 -15.699942093968641 -84.0142374596081 -15.699942093968644 -84.0142374596081 -0.37888797111391204 3.57845956942895
9.4 -0.36848716460058595 3.1740789469246073 -16.00939838503951 -84.37649785191786 -16.009398385039507 -84.37649785192787 -0.3694060314593822 3.1744706121376334
9.5 -0.35944120018240433 2.77339997644652 -16.32740128321641 -84.73156879232943 -16.32740128321641 -84.73156879233944 -0.3603630221793238 2.7737307698040703
9.6 -0.35082073854330054 2.3758784356206184 -16.654564326021028 -85.07915612331213 -16.65456432602102 -85.07915612332215 -0.35174584297913697 2.376146952631397
9.7 -0.34261328150121473 1.981423852082366 -16.9915647776307 -85.4189067406297 -16.9915647776307 -85.4189067406297 -0.34354200197228296 1.9816288141356513
9.8 -0.3348069103303468 1.5899484005660576 -17.339152836453472 -85.75039835906271 -17.33915283645347 -85.75039835906271 -0.3357395850277619 1.5900886541130825
9.9 -0.32739025681951556 1.2013668102267319 -17.69816256806342 -86.07312689660807 -17.69816256806342 -86.07312689661808 -0.32832722691438726 1.2014413251618643
10.0 -0.3203524760069184 0.8155962753291652 -18.06952496521652 -86.38649081443378 -18.06952496521652 -86.38649081443378 -0.3212940841260639 0.8156041426521645
10.1 -0.3136832204823528 0.4325563691878005 -18.45428365072686 -86.68977153012968 -18.454283650726858 -86.68977153012968 -0.31462980927827544 0.4324967980419711
10.2 -0.3073726161583509 0.05216896124632946 -18.853613890043356 -86.98210871671289 -18.853613890043352 -86.98210871672286 -0.3083245269756367 0.052041275407130515
10.3 -0.30141123941833686 -0.32564186280706814 -19.26884578570679 -87.26246887004837 -19.26884578570679 -87.26246887005838 -0.3023688110566635 -0.3258382289082024
10.4 -0.2957900955534173 -0.700949877994447 -19.70149280519731 -87.52960491560383 -19.70149280519731 -87.52960491560383 -0.29675366312936385 -0.7012153836396642
10.5 -0.29050059841115466 -1.0738267941760617 -20.15328718085225 -87.78200373976838 -20.15328718085225 -87.78200373976838 -0.2914704923148298 -1.0741617970534838
10.6 -0.2855345511786295 -1.444342327449277 -20.62622426313439 -88.0178172296556 -20.626224263134393 -88.0178172296556 -0.2865110961260405 -1.4447470886012463
10.7 -0.28088412823191755 -1.8125642689217796 -21.122618680780572 -88.23477045912958 -21.12261868078057 -88.2347704591396 -0.28186764240893203 -1.8130389578922343
10.8 -0.2765418579870767 -2.178558550937971 -21.64517627823063 -88.43003769264476 -21.64517627823063 -88.43003769264476 -0.27753265228237556 -2.1791032510629935
10.9 -0.2725006066910894 -2.5423893108735185 -22.197087444626664 -88.60007226298849 -22.197087444626664 -88.60007226298849 -0.2734989840149698 -2.5430040246616725
11.0 -0.2687535630976889 -2.904118952566372 -22.782149915852735 -88.74036902854661 -22.782149915852735 -88.74036902854661 -0.26975981778224184 -2.904803607130821
11.1 -0.2652942239738152 -3.263808205477517 -23.404932913044746 -88.84512610719166 -23.404932913044753 -88.84512610719166 -0.2663086412513247 -3.264562657977071
11.2 -0.26211638038931945 -3.6215161816712786 -24.071000416710717 -88.90675239541363 -24.071000416710714 -88.90675239542361 -0.2631392359430266 -3.6223402247164693
11.3 -0.25921410474146195 -3.9773004306830275 -24.78722094047132 -88.91513233147289 -24.78722094047132 -88.9151323314829 -0.26024566432606544 -3.978193797698356
11.4 -0.2565817384731476 -4.33121699236406 -25.562207035090715 -88.85649624789536 -25.562207035090715 -88.85649624790537 -0.2576222575989479 -4.332179362852582
11.5 -0.2542138804429304 -4.6833204477736 -26.406954953487656 -88.71162617592971 -26.406954953487656 -88.71162617592971 -0.2552636041206089 -4.684351452481945
11.6 -0.2521053759109697 -5.033663968188673 -27.335803273196795 -88.45289356345637 -27.335803273196795 -88.45289356346636 -0.25316453845126896 -5.0347631941467075
11.7 -0.2502513061033092 -5.382299362311802 -28.367918878830395 -88.03913901754832 -28.367918878830395 -88.03913901754832 -0.25132013096772643 -5.383466357723064
11.8 -0.2486469783224807 -5.72927712172936 -29.529692416570036 -87.4063211112635 -29.529692416570036 -87.40632111127347 -0.24972567802185758 -5.730511400714462
11.9 -0.24728791657410282 -6.074646464700523 -30.858778768328815 -86.44924911602875 -30.85877876832882 -86.44924911603877 -0.2483766926091146 -6.075947511869649
12.0 -0.2461698526789533 -6.4184553783336336 -32.41127075809353 -84.98277031749534 -32.41127075809353 -84.98277031750536 -0.24726889551962516 -6.4198226531913685
12.1 -0.2452887178434076 -6.760750659210974 -34.27512983801722 -82.64995182278545 -34.27512983801722 -82.64995182279543 -0.2463982069446692 -6.7621836003775915
12.2 -0.2446406346642619 -7.101577952519773 -36.59614089798191 -78.67211159204037 -36.596140897981904 -78.67211159206035 -0.2457607385122182 -7.103075981776232
12.3 -0.24422190954123285 -7.440981789750469 -39.62136368478136 -71.03180949010952 -39.62136368478136 -71.03180949012953 -0.24535278572905794 -7.442544315894242
12.4 -0.24402902547720173 -7.779005625013036 -43.62804810395424 -53.274082761080884 -43.62804810395424 -53.2740827610909 -0.24517082080475588 -7.780632047535029
12.5 -0.24405863524273724 -8.115691870023403 -46.764502470327315 -8.891563942439275 -46.76450247033731 -8.891563942450276 -0.2452114858401706 -8.117381582599146
12.6 -0.24430755488683886 -8.451081927817832 -43.816505862978815 36.45237555931635 -43.81650586298882 36.45237555932636 -0.24547158635669555 -8.452834321618148
12.7 -0.24477275757402314 -8.785216225227275 -39.824394270522006 54.783315126399614 -39.824394270522006 54.7833151264096 -0.2459480851511658 -8.78703069205164
12.8 -0.245451367730696 -9.118134244185544 -36.8142762053389 62.618786994092446 -36.814276205348904 62.61878699410242 -0.2466380964565236 -9.12001017941537
12.9 -0.24634065548355039 -9.449874551880365 -34.51866228521401 66.68330292346522 -34.51866228522401 66.68330292348523 -0.24753888039336724 -9.451811357275412
13.0 -0.24743803137619652 -9.780474829831173 -32.6865032386084 69.06621813590793 -32.6865032386084 69.06621813591794 -0.24864783769704946 -9.782471916144345
13.1 -0.24874104134686637 -10.109971901893678 -31.169448508173687 70.56863858986355 -31.169448508173687 70.56863858987354 -0.24996250470422027 -10.112028691338418
13.2 -0.2502473619558544 -10.438401761282112 -29.87814274911633 71.5560186796107 -29.87814274911633 71.5560186796207 -0.25148054858741975 -10.440517689837614
13.3 -0.25195479584788383 -10.765799596579132 -28.755710723521855 72.21727916938579 -28.75571072352185 72.2172791693958 -0.2531997628238022 -10.767974116137697
13.4 -0.2538612674386086 -11.092199816811434 -27.76403462255933 72.6594798002042 -27.76403462255933 72.65947980021419 -0.2551180628852979 -11.094432397242088
13.5 -0.2559648188125214 -11.417636075721797 -26.87643633957591 72.94767686069106 -26.87643633957591 72.94767686069106 -0.2572334821400758 -11.41992620666061
13.6 -0.2582636058228118 -11.742141294963945 -26.07356316592135 73.12362363694123 -26.07356316592135 73.12362363695125 -0.2595441679546681 -11.744488487647102
13.7 -0.26075589438153546 -12.065747686717717 -25.340952473922847 73.21531967760887 -25.34095247392285 73.21531967760887 -0.26204837798464625 -12.068151475567811
13.8 -0.2634400569316286 -12.388486775284965 -24.667523111949727 73.24222903701614 -24.667523111949727 73.24222903701614 -0.26474447664766276 -12.390946719390646
13.9 -0.26631456909124973 -12.71038941804584 -24.04460335732835 73.2182942621817 -24.04460335732835 73.21829426219172 -0.26763093176624764 -12.712905102595162
14.0 -0.26937800646139964 -13.031485825605618 -23.46528296690704 73.15375938281835 -23.46528296690704 73.15375938281835 -0.2707063113753356 -13.034056863143363
