! Created with skrf 1.12.0 (http://scikit-rf.org).
# GHz S DB R 50.0 
!freq dBS11 angS11 dBS21 angS21 dBS12 angS12 dBS22 angS22
0.01 -27.320042689893388 3.444283790216233 -0.3815409135714614 -0.18091539368955892 -0.3815409135714614 -0.18091539368415893 -27.32007645408471 3.443796320965758
0.02 -27.269852512078124 6.861362650781659 -0.38172638775133727 -0.36181025236852554 -0.3817263877513363 -0.3618102523659255 -27.269899472471096 6.860439086738558
0.1 -25.905688534122028 30.736779388071202 -0.3875737909636888 -1.8059127694640438 -0.38757379096378963 -1.8059127694630444 -25.905838370174912 30.732872562644573
0.2 -23.226357820646257 48.84112679150733 -0.40493665279767554 -3.5946626742920733 -0.40493665279767554 -3.594662674292074 -23.226843549243913 48.833592931509415
0.3 -20.721687040387245 58.03121639203441 -0.43164682989173525 -5.357975370048053 -0.43164682989173525 -5.357975370048053 -20.722769043982456 58.02154797948045
0.4 -18.62469453606051 62.723074176118324 -0.46609348139019907 -7.0957968360029655 -0.46609348139019907 -7.0957968360029655 -18.626440159889345 62.71351879994232
0.5 -16.881064627072174 65.0809776024198 -0.5073955275016833 -8.810952717942602 -0.5073955275016844 -8.810952717941605 -16.883339958603752 65.0734483849803
0.6 -15.412515640996595 66.13390150039396 -0.5551781625115557 -10.505814285546142 -0.5551781625115547 -10.505814285546137 -15.415087330829545 66.12933423390578
0.7 -14.156466559315952 66.40749413836662 -0.6092896290787098 -12.181509094533876 -0.6092896290787108 -12.181509094533876 -14.159115170031795 66.40589178494768
0.8 -13.066916837149137 66.19075808641381 -0.6696391687088525 -13.838154405863998 -0.6696391687088525 -13.838154405863998 -13.069493377999375 66.19160115697937
0.9 -12.110306461450314 65.65289758160044 -0.7361282905016131 -15.475250911306452 -0.7361282905017129 -15.475250911306452 -12.112734391877837 65.65552790375303
1.0 -11.261842994838895 64.89835893008126 -0.8086291518178262 -17.09199519854791 -0.808629151817823 -17.091995198547902 -11.264096774881569 64.90219082482848
1.1 -10.502874314820405 63.99457206683146 -0.8869833607716566 -18.687484240508077 -0.8869833607716566 -18.68748424050808 -10.504956814359081 63.999161059870296
1.2 -9.81909466570039 62.98676747220142 -0.971008161421542 -20.260834783361393 -0.9710081614215431 -20.260834783361403 -9.82102127945663 62.99180525491134
1.3 -9.199325513156529 61.90629097651757 -1.0605041076941186 -21.811245877290965 -1.0605041076941175 -21.81124587729096 -9.20111509197652 61.91157503404276
1.4 -8.634679365312138 60.775475139997845 -1.1552619328618934 -23.33802699846282 -1.1552619328618934 -23.33802699846282 -8.636349862670356 60.780876527523546
1.5 -8.117977862626208 59.61060498090575 -1.255067995283532 -24.840606824950065 -1.2550679952835309 -24.84060682495006 -8.119544699609989 59.616042480254414
1.6 -7.643340049143208 58.42378727059716 -1.3597083519525863 -26.318531831064117 -1.3597083519525885 -26.318531831064117 -7.6448158455209665 58.429209149461116
1.7 -7.2058860301490295 57.22416637701469 -1.4689717160432059 -27.77145993535054 -1.4689717160432083 -27.771459935350535 -7.20728091778817 57.2295384789858
1.8 -6.801520059568727 56.01873787595097 -1.5826515712488551 -29.1991520556738 -1.5826515712488551 -29.1991520556738 -6.8028421718783445 56.02403627462558
1.9 -6.426769188913589 54.812907096504304 -1.7005476713425534 -30.601463059555428 -1.7005476713425534 -30.601463059555435 -6.428025139712212 54.81811377522728
2.0 -6.078661413889668 53.61088145343651 -1.8224670986592693 -31.97833284280207 -1.8224670986602696 -31.97833284280207 -6.079856695851669 53.61598187202369
2.1 -5.754632344783835 52.41595174411203 -1.9482250074909737 -33.3297778637507 -1.9482250074909737 -33.3297778637507 -5.755771634242732 52.42093352238756
2.2 -5.452452788257839 51.230697586075784 -2.0776451413597963 -34.655883250488415 -2.077645141359797 -34.655883250488415 -5.453540167032757 51.235549815241384
2.3 -5.170171878841633 50.057139969323615 -2.210560186091736 -35.95679549520031 -2.210560186091736 -35.95679549520032 -5.171210991101703 50.06185285804928
2.4 -4.906071927055522 48.89685626486304 -2.3468120014349396 -37.23271570479509 -2.3468120014349396 -37.23271570479508 -4.907066088967883 48.90142095369097
2.5 -4.6586322045885185 47.751068141741705 -2.4862517607452337 -38.48389336107285 -2.486251760745235 -38.48389336107286 -4.659584481342831 47.755476598005345
2.6 -4.426499623622021 46.62070964365418 -2.6287400193222705 -39.710620543357166 -2.628740019322269 -39.710620543357166 -4.427412884621818 46.62495459448519
2.7 -4.208464789738278 45.50648053755513 -2.7741467259753048 -40.913226571832816 -2.7741467259753048 -40.913226571832816 -4.2093417493674 45.5105554229398
2.8 -4.003442283403253 44.40888859116628 -2.9223511885766236 -42.09207303718524 -2.9223511885766253 -42.092073037185244 -4.00428553211495 44.412787531122135
2.9 -3.8104542984820142 43.32828342942722 -3.073242001844789 -43.24754918949466 -3.073242001844789 -43.247549189494656 -3.811266327054495 43.332001204150814
3.0 -3.628616967803377 42.26488391329536 -3.226716944034946 -44.38006766471105 -3.226716944034946 -44.38006766471105 -3.6294001863609804 42.26841595598859
3.1 -3.4571288560938047 41.218800481216505 -3.3826828482558042 -45.49006053149281 -3.382682848255805 -45.49006053149281 -3.4578856087251126 41.222142882895575
3.2 -3.2952612137582395 40.19005353214941 -3.541055453471786 -46.57797564393563 -3.541055453471786 -46.57797564393564 -3.295993789172374 40.193203056629734
3.3 -3.1423496711109515 39.17858866589397 -3.7017592398378447 -47.64427328720548 -3.7017592398378447 -47.64427328720548 -3.1430603095944436 39.181542771909115
3.4 -2.997787118683217 38.184289403504685 -3.8647272526910785 -48.68942310373512 -3.8647272526910776 -48.68942310374513 -2.9984780155929363 38.18704627056783
3.5 -2.861017570317582 37.20698786770623 -4.02990091923969 -49.71390128784526 -4.029900919239693 -49.71390128784526 -2.861690876397956 37.20954642188021
3.6 -2.7315308455576384 36.246473796572225 -4.1972298617689 -50.718188035989584 -4.1972298617689 -50.718188035989584 -2.7321886644257605 36.24883373260005
3.7 -2.6088579390405515 35.30250218372575 -4.366671710882101 -51.702765239920794 -4.366671710882097 -51.7027652399208 -2.6095023222778186 35.30466398028724
3.8 -2.4925669692284886 34.374799777197794 -4.538191922097143 -52.668114408769135 -4.538191922097143 -52.66811440876914 -2.493199909559359 34.37676470282115
3.9 -2.382259618391052 33.46307062306534 -4.711763598848391 -53.61471480627926 -4.711763598848393 -53.61471480627925 -2.3828830414654094 33.464840730784054
4.0 -2.2775679913226976 32.5670008038812 -4.88736732469633 -54.543041788674486 -4.88736732469633 -54.54304178867449 -2.278183746627771 32.56857891364845
4.1 -2.1781518328387244 31.686262494342625 -5.064991007339645 -55.453565328550155 -5.064991007339648 -55.453565328550155 -2.178761684245765 31.68765216279578
4.2 -2.0836960541638456 30.820517434783923 -5.244629736809097 -56.34674871013008 -5.244629736809097 -56.34674871013008 -2.0843016705788626 30.821722912822413
4.3 -1.9939085265409948 29.969419906187316 -5.426285660017407 -57.22304738143333 -5.426285660017404 -57.22304738143333 -1.9945114730839995 29.97044608492734
4.4 -1.9085181070374777 29.132619276098197 -5.609967873730072 -58.08290794886046 -5.609967873730071 -58.08290794886046 -1.9091198370984341 29.13347162286767
4.5 -1.8272728669774652 28.30976217473292 -5.795692337847694 -58.926767300402005 -5.795692337847694 -58.926767300402005 -1.8278747154413046 28.31044666035017
4.6 -1.7499384979457036 27.500494350649763 -5.9834818108296615 -59.75505184375534 -5.9834818108296615 -59.75505184375534 -1.7505416757966632 27.501017370078856
4.7 -1.6762968739549486 26.704462248796933 -6.173365809032464 -60.56817684628995 -6.173365809032465 -60.56817684628995 -1.6769024644169892 26.704830536992922
4.8 -1.6061447515055818 25.92131434732472 -6.365380591727989 -61.36654586423542 -6.365380591727989 -61.36654586423542 -1.6067537077943042 25.921534892211035
4.9 -1.5392925917857254 25.15070228456158 -6.559569173562099 -62.1505502489819 -6.559569173562099 -62.150550248981915 -1.5399057364922948 25.150782239102146
5.0 -1.4755634914057305 24.39228180336716 -6.755981366330164 -62.9205687188578 -6.755981366330165 -62.9205687188578 -1.4761815174986315 24.392228398415156
5.1 -1.414792209897031 23.64571353655812 -6.954673852016624 -63.6769669852053 -6.954673852016625 -63.6769669852053 -1.41541568325284 23.645533996173096
5.2 -1.3568242836840794 22.910663653804693 -7.155710289221126 -64.42009742196164 -7.155710289221125 -64.42009742196164 -1.3574536470538756 22.910365114499537
5.3 -1.3015152175752942 22.186804388228786 -7.359161455302163 -65.15029876832946 -7.359161455302164 -65.15029876832945 -1.3021507958354874 22.186393823197715
5.4 -1.2487297458791147 21.473814458085847 -7.565105426817311 -65.86789585424823 -7.56510542681731 -65.86789585424825 -1.2493717524303214 21.473298607624415
5.5 -1.1983411562270834 20.771379397645074 -7.773627801164855 -66.57319933881551 -7.773627801164855 -66.57319933881551 -1.1989897003555068 20.770764706393013
5.6 -1.1502306699805172 20.07919180909367 -7.9848219627144275 -67.2665054514447 -7.984821962715428 -67.26650545144471 -1.1508857650153568 20.078484370641128
5.7 -1.1042868737932974 19.396951546222407 -8.198789397158112 -67.94809572580505 -8.198789397158112 -67.94809572580503 -1.1049484458815981 19.396157055570058
5.8 -1.0604051975101232 18.724365839080846 -8.415640058361307 -68.61823671616703 -8.415640058361307 -68.61823671616703 -1.0610730948374243 18.723489552984265
5.9 -1.0184874341212038 18.061149368031586 -8.63549279262238 -69.27717968548605 -8.635492792622378 -69.27717968548605 -1.0191614364113946 18.06019607329004
6.0 -0.9784412979233842 17.407024294083385 -8.858475825978168 -69.92516025380542 -8.85847582597817 -69.92516025380542 -0.9791211260625701 17.405998283623376
6.1 -0.9401800174650814 16.761720252114422 -9.08472732108492 -70.56239799476937 -9.084727321084921 -70.56239799476937 -0.9408653431060796 16.76062530863782
6.2 -0.9036219601891113 16.124974312436326 -9.31439601119639 -71.18909596712628 -9.314396011196388 -71.18909596712628 -0.9043124152107438 16.123813699133525
6.3 -0.8686902860078132 15.496530915521351 -9.54764191999751 -71.80544016621056 -9.54764191999751 -71.80544016621056 -0.8693854717122179 15.495307373549085
6.4 -0.8353126273107081 14.876141784244194 -9.784637177413948 -72.41159887906291 -9.784637177413945 -72.41159887906291 -0.8360121232630578 14.874857536378334
6.5 -0.8034207931538275 14.26356581746108 -10.025566943258752 -73.00772192410689 -10.025566943258752 -73.00772192410689 -0.8041241655803915 14.262222577294263
6.6 -0.7729504955924156 13.658568968008373 -10.270630452462136 -73.59393975378015 -10.270630452462138 -73.59393975378015 -0.7736573052703091 13.657167954262496
6.7 -0.7438410963127301 13.060924108203421 -10.520042198085402 -74.17036239462854 -10.520042198085399 -74.17036239462854 -0.7445509058983868 13.059466063397002
6.8 -0.716035371888246 12.470410885210113 -10.774033271051826 -74.73707819517041 -10.774033271051827 -74.73707819517041 -0.7167477526442321 12.468896098160554
6.9 -0.6894792961407747 11.886815568482 -11.032852878862293 -75.29415234606977 -11.032852878862291 -75.29415234606977 -0.6901938340357426 11.885243900042722
7.0 -0.6641218382248605 11.309930891235478 -11.296770069748401 -75.8416251304852 -11.296770069748401 -75.8416251304852 -0.6648381393888105 11.308301802657967
7.1 -0.6399147751739981 10.73955588749573 -11.566075693351562 -76.3795098537627 -11.566075693351562 -76.3795098537627 -0.6406324707051702 10.737868470896608
7.2 -0.6168125177636915 10.175495726208036 -11.841084635198786 -76.90779039072038 -11.841084635198786 -76.90779039072038 -0.617531267890247 10.173748736591099
7.3 -0.5947719486420019 9.617561543579843 -12.12213836926546 -77.42641827564219 -12.12213836926546 -77.42641827564219 -0.5954914462493663 9.615753431972236
7.4 -0.5737522717723524 9.065570274711192 -12.409607881835726 -77.93530924253912 -12.409607881835726 -77.93530924253912 -0.5744722453138845 9.063699221946685
7.5 -0.5537148723119687 8.519344485460627 -12.703897030750708 -78.43433910185544 -12.703897030750708 -78.43433910185544 -0.5544350881269909 8.517408436176202
7.6 -0.5346231861266381 7.978712205205044 -13.005446417684976 -78.9233388119382 -13.005446417684979 -78.9233388119382 -0.5353434501930433 7.976708901730767
7.7 -0.5164425782081479 7.443506761204409 -13.314737867721572 -79.40208856784761 -13.314737867721572 -79.40208856784761 -0.5171627373607804 7.441433776997774
7.8 -0.4991402293208555 6.913566615077537 -13.632299631915757 -79.87031068423703 -13.632299631915757 -79.87031068423703 -0.49986017196945315 6.911421387418311
7.9 -0.48268503026265097 6.388735201839791 -13.958712454787845 -80.32766098840023 -13.958712454787843 -80.32766098840023 -0.48340468664468567 6.3865150635445085
8.0 -0.4670474831721791 5.868860771854525 -14.294616682735242 -80.77371836100477 -14.294616682735242 -80.77371836100477 -0.4677668251778933 5.866562981798715
8.1 -0.4521996093629607 5.353796236017038 -14.640720632703804 -81.2079719567393 -14.640720632703804 -81.2079719567393 -0.4529186499687834 5.3514180082762675
8.2 -0.43811486320653426 4.8433990143716334 -14.997810496158861 -81.62980549727395 -14.997810496158861 -81.62980549727395 -0.438833655554555 4.8409375458654615
8.3 -0.4247680516234678 4.337530888373337 -15.366762126265815 -82.03847783937171 -15.366762126265819 -82.03847783937171 -0.4254866877840505 4.3349833848652946
8.4 -0.4121352587790381 3.836057856907711 -15.748555151650578 -82.43309876280993 -15.748555151650578 -82.43309876280993 -0.41285386823101955 3.83342155730234
8.5 -0.40019377560850883 3.3388499961871188 -16.144289986459903 -82.8125985665106 -16.144289986459903 -82.81259856651059 -0.4009125234732953 3.336122195042173
8.6 -0.3889220338301402 2.8457813235567104 -16.555208475831652 -83.17568956340783 -16.555208475831652 -83.17568956340783 -0.38964111889191566 2.8429593917875615
8.7 -0.3782995441278273 2.3567296652803282 -16.982719144785207 -83.52081686153207 -16.982719144785204 -83.52081686153208 -0.37901919667182904 2.3538110690226244
8.8 -0.3683068382117676 1.8715765282844328 -17.428428331961847 -83.8460948095495 -17.42842833196185 -83.8460948095495 -0.36902731771087394 1.868558845921036
8.9 -0.3589254144864098 1.3902069758631064 -17.894178923725473 -84.1492240166057 -17.894178923725473 -84.1492240166057 -0.3596470071638346 1.387087913230353
9.0 -0.35013768707682885 0.9125095073152946 -18.382099014083394 -84.42738168362297 -18.382099014083394 -84.42738168362297 -0.35086070337179043 0.909286911110262
9.1 -0.3419269379829424 0.43837594146651304 -18.894663684437397 -84.67707471058995 -18.894663684437397 -84.67707471058995 -0.34265170994330374 0.4350478108965981
9.2 -0.33427727214875247 -0.03229869598177251 -19.43477435445521 -84.89394001800342 -19.434774354455215 -84.89394001800342 -0.3350041507735587 -0.03573419926111556
9.3 -0.32717357524952617 -0.4996162813398808 -20.00586200587209 -85.07246863420058 -20.00586200587209 -85.07246863420058 -0.32790292780188307 -0.5031608249403536
9.4 -0.32060147401389827 -0.9636756981291605 -20.612023355292884 -85.20561742724225 -20.612023355292884 -85.20561742724223 -0.3213336813228025 -0.9673307722376365
9.5 -0.31454729891253536 -1.4245729386750947 -21.25820329510438 -85.28425145590514 -21.258203295104376 -85.28425145591514 -0.3152827526817514 -1.4283398508865217
9.6 -0.30899804905735634 -1.882401202180182 -21.950443551797978 -85.2963244008538 -21.950443551797978 -85.2963244008538 -0.3097371491955813 -1.8862810737830402
9.7 -0.30394135916427906 -2.337250989365251 -22.6962281153028 -85.22564218382045 -22.6962281153028 -85.22564218383044 -0.30468451115103345 -2.341244753008963
9.8 -0.2993654684477664 -2.789210193776569 -23.504973374999146 -85.04994124017311 -23.504973374999146 -85.04994124017311 -0.30011308074700155 -2.7933185924377844
9.9 -0.2952591913191886 -3.2383641898471796 -24.38874012475226 -84.73779680080122 -24.38874012475226 -84.73779680081122 -0.29601167285150787 -3.24258777702259
10.0 -0.29161188977623 -3.684795917814096 -25.363294967216603 -84.243445034888 -25.363294967216603 -84.243445034888 -0.29236964745861765 -3.689135058864715
10.1 -0.2884134473726648 -4.128585965578183 -26.449737178080397 -83.49769134751953 -26.449737178080397 -83.49769134751953 -0.28917688373459516 -4.133040840143262
10.2 -0.28565424467021405 -4.569812647621322 -27.677063278910566 -82.39102083143999 -27.677063278910566 -82.39102083143999 -0.28642375555281113 -4.574383253028086
10.3 -0.2833251360802009 -5.008552081054449 -29.08630411427812 -80.74001896586256 -29.08630411427812 -80.74001896586256 -0.2841011084232311 -5.013238236641847
10.4 -0.2814174280050544 -5.444878258901091 -30.737202112373815 -78.21488486188593 -30.737202112373815 -78.21488486188595 -0.28220023772799113 -5.449679611203804
10.5 -0.27992285820370055 -5.878863120716101 -32.718009512184246 -74.16674363637573 -32.718009512184246 -74.16674363637573 -0.2807128681837411 -5.883779149408997
10.6 -0.27883357630159966 -6.310576620614222 -35.15119289778827 -67.16932912701076 -35.15119289778827 -67.16932912701076 -0.2796311344522207 -6.315606645176531
10.7 -0.27814212537814054 -6.740086792812218 -38.119432660043785 -53.735906012223936 -38.11943266005379 -53.73590601223393 -0.2789475628298302 -6.74522997982769
10.8 -0.27784142456655925 -7.167459814770282 -40.98408932655491 -26.360261505817228 -40.98408932655491 -26.36026150581722 -0.2786550539509048 -7.1727151858005955
10.9 -0.2779247526020835 -7.592760068000465 -40.93497024685937 13.103662989549266 -40.93497024685937 13.10366298955927 -0.27874686644186697 -7.598126507984195
11.0 -0.278385732266992 -8.016050196658869 -38.08044904571643 39.827080303224456 -38.08044904571642 39.82708030323445 -0.2792166014698547 -8.02152646275934
11.1 -0.2792183156748582 -8.437391163960472 -35.1814236057349 52.92285774207998 -35.1814236057349 52.92285774207998 -0.2800581881323302 -8.442975894825741
11.2 -0.2804167703473842 -8.856842306536194 -32.818954808801706 59.78056973525036 -32.818954808801706 59.78056973525036 -0.28126586963822525 -8.862534031901651
11.3 -0.2819756660371257 -9.274461386768238 -30.90398893344057 63.77063152740022 -30.90398893344057 63.770631527400205 -0.28283419023286493 -9.280258537370013
11.4 -0.28388986225200896 -9.690304643214311 -29.315076013651126 66.27539360549825 -29.315076013651126 66.27539360549825 -0.28475798282461373 -9.696205560951023
11.5 -0.28615449644269836 -10.104426839159755 -27.965217889618263 67.9265212963086 -27.965217889618263 67.92652129631857 -0.2870323572714501 -10.11042978746685
11.6 -0.2887649728140101 -10.516881309372247 -26.79553115497179 69.04627617353925 -26.79553115497179 69.04627617353925 -0.2896526892899741 -10.522984483782444
11.7 -0.2917169517254666 -10.927720005191066 -25.765539278446358 69.81442084586826 -25.765539278436357 69.81442084586826 -0.29261460995183053 -10.933921543984285
11.8 -0.2950063396483144 -11.336993537816747 -24.84660840909166 70.33855354262714 -24.84660840909166 70.33855354262714 -0.295913995733324 -11.343291532851918
11.9 -0.29862927964680774 -11.744751220202968 -24.017883883242888 70.68679924957218 -24.017883883242888 70.68679924957219 -0.2995469590866333 -11.751143727706237
12.0 -0.3025821423561994 -12.151041107199532 -23.2637696773515 70.90429785836359 -23.2637696773515 70.90429785836359 -0.30350983950592314 -12.157526158673365
12.1 -0.3068615174291347 -12.555910034367514 -22.572327867436144 71.0221000323524 -22.57232786743614 71.0221000323524 -0.3077991950581221 -12.562485647481026
12.2 -0.31146420542506625 -12.959403655276178 -21.934233299493894 71.06224318873548 -21.93423329949389 71.06224318873548 -0.31241179435447747 -12.966067844707416
12.3 -0.31638721011946924 -13.361566477451865 -21.342071666361704 71.04078727839855 -21.342071666361704 71.04078727839855 -0.3173446089375634 -13.368317265742366
12.4 -0.32162773120923704 -13.76244189701853 -20.789855868618126 70.96970435733759 -20.789855868618126 70.96970435733759 -0.32259480606325835 -13.769277325300834
12.5 -0.327183157393578 -14.162072231990065 -20.27268488074514 70.85809574516803 -20.27268488074514 70.85809574516801 -0.32815974185425695 -14.168990370698646
12.6 -0.3330510598110867 -14.560498754424108 -19.786498000230356 70.71299971160278 -19.786498000230356 70.71299971161277 -0.3340369548063099 -14.56749771387035
12.7 -0.33922918581327016 -14.957761721337443 -19.32789441729932 70.53994156703835 -19.32789441729932 70.53994156703835 -0.34022415962853825 -14.96483966212929
12.8 -0.3457154530579828 -15.353900404442873 -18.893998459198066 70.3433170044894 -18.893998459198066 70.3433170044894 -0.34671924140020816 -15.36105554784963
12.9 -0.3525079439048628 -15.748953118857507 -18.48235738254586 70.12666473659193 -18.48235738254586 70.12666473659193 -0.3535202500273883 -15.756183757010573
13.0 -0.3596049000993864 -16.142957250672357 -18.090862762138148 69.8928639606448 -18.090862762138148 69.8928639606448 -0.3606253949836672 -16.150261756552442
13.1 -0.3670047177285254 -16.535949283573228 -17.717689256799677 69.64427973845005 -17.717689256799677 69.64427973845005 -0.3680330403209082 -16.543326120924863
13.2 -0.374705942435854 -16.927964824373035 -17.361246356447893 69.38287162445175 -17.361246356447893 69.38287162445175 -0.3757416999359825 -16.935412557386776
13.3 -0.38270726488178164 -17.319038627695086 -17.02013995431634 69.11027593038354 -17.02013995431634 69.11027593038354 -0.38375003308090877 -17.32655593050852
13.4 -0.39100751643873977 -17.7092046196477 -16.69314144549844 68.8278687924847 -16.69314144549844 68.8278687924847 -0.3920568401028741 -17.716790285695666
13.5 -0.39960566510700896 -18.09849592064995 -16.379162654911344 68.53681506649534 -16.379162654911344 68.53681506649534 -0.4006610584052298 -18.106148871824896
13.6 -0.4085008116426748 -18.486944867398474 -16.077235326619938 68.23810662778 -16.077235326619935 68.23810662778 -0.4095617586157707 -18.494664162981692
13.7 -0.41769218588602636 -18.874583033975394 -15.786494216301104 67.93259265860017 -15.786494216301104 67.93259265860017 -0.4187581409538877 -18.8823678794099
13.8 -0.42717914328131107 -19.261441252197265 -15.506163054728095 67.62100381046564 -15.506163054728095 67.62100381046564 -0.4282495317867764 -19.269291007623224
13.9 -0.43696116157799497 -19.64754963115499 -15.23554281785507 67.30397163760466 -15.23554281785507 67.30397163760466 -0.4380353803651174 -19.65546381978852
14.0 -0.4470378377067803 -20.03293757600492 -14.97400186402183 66.98204434611301 -14.97400186402183 66.98204434611301 -0.4481152557296051 -20.04091589230106
