#  GHZ S DB R 50.0
 1.00000000e-02 -3.007386772450e+01 +5.137632476794e+00 -2.756001026581e-01 -1.977203315661e-01 -2.756001026582e-01 -1.977203315602e-01 -3.007385972752e+01 +5.137749238262e+00
 2.00000000e-02 -2.994089089265e+01 +9.994845023593e+00 -2.768071337673e-01 -3.901318393554e-01 -2.768071337674e-01 -3.901318393525e-01 -2.994085613141e+01 +9.995042686973e+00
 1.00000000e-01 -2.755597699252e+01 +3.935725445204e+01 -2.884874019889e-01 -1.881369143568e+00 -2.884874019890e-01 -1.881369143567e+00 -2.755560075920e+01 +3.935485214397e+01
 2.00000000e-01 -2.400495093259e+01 +5.688001310047e+01 -3.116712657306e-01 -3.705116768963e+00 -3.116712657306e-01 -3.705116768962e+00 -2.400487809058e+01 +5.687191192601e+01
 3.00000000e-01 -2.112712144971e+01 +6.440896502530e+01 -3.441094074923e-01 -5.489566298359e+00 -3.441094074923e-01 -5.489566298359e+00 -2.112777660950e+01 +6.439823413516e+01
 4.00000000e-01 -1.886355298972e+01 +6.777915491030e+01 -3.839066514151e-01 -7.235710878345e+00 -3.839066514152e-01 -7.235710878344e+00 -1.886490077185e+01 +6.776855914769e+01
 5.00000000e-01 -1.704026329707e+01 +6.918020074923e+01 -4.297178693110e-01 -8.949009357722e+00 -4.297178693110e-01 -8.949009357722e+00 -1.704212404809e+01 +6.917126393018e+01
 6.00000000e-01 -1.553239318116e+01 +6.954385876922e+01 -4.809286059543e-01 -1.063492777642e+01 -4.809286059544e-01 -1.063492777642e+01 -1.553457831590e+01 +6.953718773950e+01
 7.00000000e-01 -1.425690202989e+01 +6.931677342727e+01 -5.373179311363e-01 -1.229729535062e+01 -5.373179311363e-01 -1.229729535062e+01 -1.425925789108e+01 +6.931244352313e+01
 8.00000000e-01 -1.315787826645e+01 +6.873253802487e+01 -5.988222173585e-01 -1.393839867149e+01 -5.988222173586e-01 -1.393839867149e+01 -1.316029299258e+01 +6.873035920615e+01
 9.00000000e-01 -1.219667630857e+01 +6.792195112083e+01 -6.654237003800e-01 -1.555943158940e+01 -6.654237003801e-01 -1.555943158940e+01 -1.219907420706e+01 +6.792162512247e+01
 1.00000000e+00 -1.134582455029e+01 +6.696262607161e+01 -7.371052140300e-01 -1.716087719787e+01 -7.371052140301e-01 -1.716087719787e+01 -1.134815767771e+01 +6.696383143767e+01
 1.10000000e+00 -1.058525793388e+01 +6.590305127646e+01 -8.138335755151e-01 -1.874277032104e+01 -8.138335755151e-01 -1.874277032104e+01 -1.058749829664e+01 +6.590548538350e+01
 1.20000000e+00 -9.899945845929e+00 +6.477495710847e+01 -8.955546350530e-01 -2.030487044706e+01 -8.955546350530e-01 -2.030487044706e+01 -9.902079167405e+00 +6.477835393195e+01
 1.30000000e+00 -9.278365061676e+00 +6.359998855787e+01 -9.821930831412e-01 -2.184677672005e+01 -9.821930831413e-01 -2.184677672005e+01 -9.280386149141e+00 +6.360412346550e+01
 1.40000000e+00 -8.711493804319e+00 +6.239346248454e+01 -1.073654243817e+00 -2.336800600365e+01 -1.073654243817e+00 -2.336800600365e+01 -8.713403254725e+00 +6.239815059349e+01
 1.50000000e+00 -8.192133924456e+00 +6.116656695517e+01 -1.169826686233e+00 -2.486804670013e+01 -1.169826686233e+00 -2.486804670013e+01 -8.193935854950e+00 +6.117165870419e+01
 1.60000000e+00 -7.714444157273e+00 +5.992769585478e+01 -1.270585117231e+00 -2.634639600284e+01 -1.270585117231e+00 -2.634639600284e+01 -7.716144680811e+00 +5.993307173640e+01
 1.70000000e+00 -7.273612063282e+00 +5.868328667242e+01 -1.375793283857e+00 -2.780258542828e+01 -1.375793283857e+00 -2.780258542828e+01 -7.275218288043e+00 +5.868885208968e+01
 1.80000000e+00 -6.865618962849e+00 +5.743836357627e+01 -1.485306741142e+00 -2.923619785131e+01 -1.485306741142e+00 -2.923619785131e+01 -6.867138351079e+00 +5.744404424479e+01
 1.90000000e+00 -6.487068449173e+00 +5.619690036840e+01 -1.598975408276e+00 -3.064687829026e+01 -1.598975408276e+00 -3.064687829026e+01 -6.488508418174e+00 +5.620263839676e+01
 2.00000000e+00 -6.135059173388e+00 +5.496207020879e+01 -1.716645876103e+00 -3.203434006431e+01 -1.716645876103e+00 -3.203434006431e+01 -6.136426857176e+00 +5.496782084901e+01
 2.10000000e+00 -5.807088993946e+00 +5.373642223239e+01 -1.838163453215e+00 -3.339836752399e+01 -1.838163453215e+00 -3.339836752399e+01 -5.808391110050e+00 +5.374215123060e+01
 2.20000000e+00 -5.500981707090e+00 +5.252200975161e+01 -1.963373952972e+00 -3.473881625809e+01 -1.963373952972e+00 -3.473881625809e+01 -5.502224491184e+00 +5.252769120976e+01
 2.30000000e+00 -5.214830281441e+00 +5.132048561147e+01 -2.092125232771e+00 -3.605561146384e+01 -2.092125232771e+00 -3.605561146384e+01 -5.216019464974e+00 +5.132610027141e+01
 2.40000000e+00 -4.946952325502e+00 +5.013317473760e+01 -2.224268502098e+00 -3.734874500665e+01 -2.224268502098e+00 -3.734874500665e+01 -4.948093139924e+00 +5.013870860857e+01
 2.50000000e+00 -4.695854741435e+00 +4.896113049367e+01 -2.359659418537e+00 -3.861827157408e+01 -2.359659418537e+00 -3.861827157408e+01 -4.696951938291e+00 +4.896657375599e+01
 2.60000000e+00 -4.460205361767e+00 +4.780517929777e+01 -2.498158991968e+00 -3.986430423601e+01 -2.498158991968e+00 -3.986430423601e+01 -4.461263241630e+00 +4.781052542769e+01
 2.70000000e+00 -4.238809954801e+00 +4.666595654885e+01 -2.639634317227e+00 -4.108700965124e+01 -2.639634317227e+00 -4.108700965124e+01 -4.239832400559e+00 +4.667120161986e+01
 2.80000000e+00 -4.030593401887e+00 +4.554393599373e+01 -2.783959154915e+00 -4.228660310506e+01 -2.783959154915e+00 -4.228660310506e+01 -4.031583913486e+00 +4.554907811873e+01
 2.90000000e+00 -3.834584149103e+00 +4.443945404938e+01 -2.931014379077e+00 -4.346334351813e+01 -2.931014379077e+00 -4.346334351813e+01 -3.835545877969e+00 +4.444449293510e+01
 3.00000000e+00 -3.649901253360e+00 +4.335273017550e+01 -3.080688309261e+00 -4.461752853260e+01 -3.080688309261e+00 -4.461752853260e+01 -3.650837035428e+00 +4.335766676661e+01
 3.10000000e+00 -3.475743502653e+00 +4.228388410281e+01 -3.232876943204e+00 -4.574948975370e+01 -3.232876943204e+00 -4.574948975370e+01 -3.476655889395e+00 +4.228872029774e+01
 3.20000000e+00 -3.311380208708e+00 +4.123295051899e+01 -3.387484105018e+00 -4.685958820309e+01 -3.387484105018e+00 -4.685958820309e+01 -3.312271495864e+00 +4.123768894299e+01
 3.30000000e+00 -3.156143359111e+00 +4.019989166950e+01 -3.544421522420e+00 -4.794821002298e+01 -3.544421522420e+00 -4.794821002298e+01 -3.157015613029e+00 +4.020453549371e+01
 3.40000000e+00 -3.009420883216e+00 +3.918460822630e+01 -3.703608845249e+00 -4.901576245588e+01 -3.703608845249e+00 -4.901576245588e+01 -3.010275964825e+00 +3.918916102365e+01
 3.50000000e+00 -2.870650837397e+00 +3.818694870128e+01 -3.864973616263e+00 -5.006267011415e+01 -3.864973616263e+00 -5.006267011415e+01 -2.871490423917e+00 +3.819141433211e+01
 3.60000000e+00 -2.739316354617e+00 +3.720671762481e+01 -4.028451204024e+00 -5.108937154482e+01 -4.028451204024e+00 -5.108937154482e+01 -2.740141959141e+00 +3.721110014626e+01
 3.70000000e+00 -2.614941233853e+00 +3.624368266728e+01 -4.193984706585e+00 -5.209631608837e+01 -4.193984706585e+00 -5.209631608837e+01 -2.615754222973e+00 +3.624798626203e+01
 3.80000000e+00 -2.497086068754e+00 +3.529758084954e+01 -4.361524833687e+00 -5.308396102547e+01 -4.361524833687e+00 -5.308396102547e+01 -2.497887678383e+00 +3.530180977023e+01
 3.90000000e+00 -2.385344833613e+00 +3.436812396331e+01 -4.531029774237e+00 -5.405276900135e+01 -4.531029774237e+00 -5.405276900135e+01 -2.386136183171e+00 +3.437228248953e+01
 4.00000000e+00 -2.279341859567e+00 +3.345500330287e+01 -4.702465055009e+00 -5.500320571529e+01 -4.702465055009e+00 -5.500320571529e+01 -2.280123964669e+00 +3.345909570852e+01
 4.10000000e+00 -2.178729145706e+00 +3.255789379442e+01 -4.875803395754e+00 -5.593573786043e+01 -4.875803395754e+00 -5.593573786043e+01 -2.179502929506e+00 +3.256192432344e+01
 4.20000000e+00 -2.083183959212e+00 +3.167645759674e+01 -5.051024565253e+00 -5.685083129823e+01 -5.051024565253e+00 -5.685083129823e+01 -2.083950262499e+00 +3.168043044558e+01
 4.30000000e+00 -1.992406686210e+00 +3.081034723684e+01 -5.228115242246e+00 -5.774894945096e+01 -5.228115242246e+00 -5.774894945096e+01 -1.993166276401e+00 +3.081426654234e+01
 4.40000000e+00 -1.906118901206e+00 +2.995920833579e+01 -5.407068884678e+00 -5.863055189581e+01 -5.407068884679e+00 -5.863055189581e+01 -1.906872480313e+00 +2.996307816750e+01
 4.50000000e+00 -1.824061627941e+00 +2.912268197321e+01 -5.587885610277e+00 -5.949609314390e+01 -5.587885610277e+00 -5.949609314390e+01 -1.824809839629e+00 +2.912650632902e+01
 4.60000000e+00 -1.745993768629e+00 +2.830040673260e+01 -5.770572091092e+00 -6.034602158827e+01 -5.770572091092e+00 -6.034602158827e+01 -1.746737204443e+00 +2.830418953699e+01
 4.70000000e+00 -1.671690681891e+00 +2.749202046495e+01 -5.955141464374e+00 -6.118077860523e+01 -5.955141464374e+00 -6.118077860523e+01 -1.672429886744e+00 +2.749576556924e+01
 4.80000000e+00 -1.600942892501e+00 +2.669716180354e+01 -6.141613261889e+00 -6.200079779435e+01 -6.141613261889e+00 -6.200079779435e+01 -1.601678369512e+00 +2.670087298753e+01
 4.90000000e+00 -1.533554918393e+00 +2.591547145908e+01 -6.330013359645e+00 -6.280650434308e+01 -6.330013359645e+00 -6.280650434308e+01 -1.534287133138e+00 +2.591915243371e+01
 5.00000000e+00 -1.469344202310e+00 +2.514659332110e+01 -6.520373949838e+00 -6.359831450293e+01 -6.520373949838e+00 -6.359831450293e+01 -1.470073586569e+00 +2.515024773180e+01
 5.10000000e+00 -1.408140137109e+00 +2.439017538852e+01 -6.712733536809e+00 -6.437663516483e+01 -6.712733536809e+00 -6.437663516483e+01 -1.408867092168e+00 +2.439380681889e+01
 5.20000000e+00 -1.349783175142e+00 +2.364587054973e+01 -6.907136958741e+00 -6.514186352250e+01 -6.907136958741e+00 -6.514186352250e+01 -1.350508074706e+00 +2.364948252555e+01
 5.30000000e+00 -1.294124013274e+00 +2.291333723043e+01 -7.103635436916e+00 -6.589438681309e+01 -7.103635436916e+00 -6.589438681309e+01 -1.294847206055e+00 +2.291693322367e+01
 5.40000000e+00 -1.241022846135e+00 +2.219223992519e+01 -7.302286654367e+00 -6.663458212564e+01 -7.302286654367e+00 -6.663458212564e+01 -1.241744658140e+00 +2.219582335809e+01
 5.50000000e+00 -1.190348681032e+00 +2.148224962719e+01 -7.503154865964e+00 -6.736281626815e+01 -7.503154865964e+00 -6.736281626815e+01 -1.191069417615e+00 +2.148582387622e+01
 5.60000000e+00 -1.141978708724e+00 +2.078304416875e+01 -7.706311042093e+00 -6.807944568540e+01 -7.706311042093e+00 -6.807944568540e+01 -1.142698656406e+00 +2.078661256854e+01
 5.70000000e+00 -1.095797724854e+00 +2.009430848404e+01 -7.911833048376e+00 -6.878481641971e+01 -7.911833048376e+00 -6.878481641971e+01 -1.096517152966e+00 +2.009787433115e+01
 5.80000000e+00 -1.051697597452e+00 +1.941573480391e+01 -8.119805864124e+00 -6.947926410800e+01 -8.119805864124e+00 -6.947926410800e+01 -1.052416759606e+00 +1.941930136052e+01
 5.90000000e+00 -1.009576776347e+00 +1.874702279190e+01 -8.330321842610e+00 -7.016311400866e+01 -8.330321842610e+00 -7.016311400866e+01 -1.010295911765e+00 +1.875059328933e+01
 6.00000000e+00 -9.693398407969e-01 +1.808787962913e+01 -8.543481016641e+00 -7.083668105248e+01 -8.543481016641e+00 -7.083668105248e+01 -9.700591755095e-01 +1.809145727127e+01
 6.10000000e+00 -9.308970819983e-01 +1.743802005519e+01 -8.759391453433e+00 -7.150026991224e+01 -8.759391453433e+00 -7.150026991224e+01 -9.316168299327e-01 +1.744160802179e+01
 6.20000000e+00 -8.941641174725e-01 +1.679716637118e+01 -8.978169663366e+00 -7.215417508596e+01 -8.978169663367e+00 -7.215417508596e+01 -8.948844814362e-01 +1.680076782102e+01
 6.30000000e+00 -8.590615346186e-01 +1.616504841032e+01 -9.199941067896e+00 -7.279868098902e+01 -9.199941067896e+00 -7.279868098902e+01 -8.597827071939e-01 +1.616866648428e+01
 6.40000000e+00 -8.255145609821e-01 +1.554140348102e+01 -9.424840532697e+00 -7.343406205078e+01 -9.424840532697e+00 -7.343406205078e+01 -8.262367253385e-01 +1.554504130506e+01
 6.50000000e+00 -7.934527590177e-01 +1.492597628663e+01 -9.653012973084e+00 -7.406058281126e+01 -9.653012973085e+00 -7.406058281126e+01 -7.941760896514e-01 +1.492963697458e+01
 6.60000000e+00 -7.628097433331e-01 +1.431851882555e+01 -9.884614039860e+00 -7.467849801378e+01 -9.884614039860e+00 -7.467849801378e+01 -7.635344067401e-01 +1.432220548189e+01
 6.70000000e+00 -7.335229185841e-01 +1.371879027511e+01 -1.011981089504e+01 -7.528805268918e+01 -1.011981089504e+01 -7.528805268918e+01 -7.342490738736e-01 +1.372250599759e+01
 6.80000000e+00 -7.055332363550e-01 +1.312655686198e+01 -1.035878308846e+01 -7.588948222743e+01 -1.035878308846e+01 -7.588948222743e+01 -7.062610358085e-01 +1.313030474419e+01
 6.90000000e+00 -6.787849695091e-01 +1.254159172175e+01 -1.060172354817e+01 -7.648301243194e+01 -1.060172354817e+01 -7.648301243194e+01 -6.795145590910e-01 +1.254537485554e+01
 7.00000000e+00 -6.532255026272e-01 +1.196367474976e+01 -1.084883969952e+01 -7.706885955187e+01 -1.084883969952e+01 -7.706885955187e+01 -6.539570224501e-01 +1.196749622763e+01
 7.10000000e+00 -6.288051372702e-01 +1.139259244525e+01 -1.110035473059e+01 -7.764723028705e+01 -1.110035473059e+01 -7.764723028705e+01 -6.295387220205e-01 +1.139645536258e+01
 7.20000000e+00 -6.054769109141e-01 +1.082813775038e+01 -1.135650902477e+01 -7.821832175950e+01 -1.135650902477e+01 -7.821832175950e+01 -6.062126902409e-01 +1.083204520766e+01
 7.30000000e+00 -5.831964285024e-01 +1.027010988566e+01 -1.161756178471e+01 -7.878232144488e+01 -1.161756178471e+01 -7.878232144488e+01 -5.839345273726e-01 +1.027406499057e+01
 7.40000000e+00 -5.619217056490e-01 +9.718314182998e+00 -1.188379287669e+01 -7.933940705589e+01 -1.188379287669e+01 -7.933940705589e+01 -5.626622446731e-01 +9.722320052434e+00
 7.50000000e+00 -5.416130226078e-01 +9.172561917456e+00 -1.215550492975e+01 -7.988974636834e+01 -1.215550492975e+01 -7.988974636834e+01 -5.423561183374e-01 +9.176621679506e+00
 7.60000000e+00 -5.222327881977e-01 +8.632670138711e+00 -1.243302573052e+01 -8.043349697885e+01 -1.243302573052e+01 -8.043349697885e+01 -5.229785533984e-01 +8.636786934526e+00
 7.70000000e+00 -5.037454129367e-01 +8.098461502919e+00 -1.271671096277e+01 -8.097080598068e+01 -1.271671096277e+01 -8.097080598068e+01 -5.044939568389e-01 +8.102638488534e+00
 7.80000000e+00 -4.861171907036e-01 +7.569764105725e+00 -1.300694735091e+01 -8.150180954140e+01 -1.300694735092e+01 -8.150180954140e+01 -4.868686192316e-01 +7.574004453811e+00
 7.90000000e+00 -4.693161882961e-01 +7.046411316979e+00 -1.330415627874e+01 -8.202663236229e+01 -1.330415627874e+01 -8.202663236229e+01 -4.700706042797e-01 +7.050718218541e+00
 8.00000000e+00 -4.533121423096e-01 +6.528241617633e+00 -1.360879797017e+01 -8.254538699432e+01 -1.360879797017e+01 -8.254538699432e+01 -4.540696456777e-01 +6.532618283649e+00
 8.10000000e+00 -4.380763628025e-01 +6.015098439226e+00 -1.392137633821e+01 -8.305817297950e+01 -1.392137633821e+01 -8.305817297950e+01 -4.388370507621e-01 +6.019548102232e+00
 8.20000000e+00 -4.235816432598e-01 +5.506830006285e+00 -1.424244463237e+01 -8.356507577806e+01 -1.424244463237e+01 -8.356507577806e+01 -4.243456104602e-01 +5.511355921911e+00
 8.30000000e+00 -4.098021764020e-01 +5.003289181906e+00 -1.457261204577e+01 -8.406616543093e+01 -1.457261204577e+01 -8.406616543093e+01 -4.105695150871e-01 +5.007894630371e+00
 8.40000000e+00 -3.967134754246e-01 +4.504333316744e+00 -1.491255148277e+01 -8.456149489318e+01 -1.491255148277e+01 -8.456149489318e+01 -3.974842755728e-01 +4.509021604298e+00
 8.50000000e+00 -3.842923002827e-01 +4.009824101554e+00 -1.526300873858e+01 -8.505109795456e+01 -1.526300873858e+01 -8.505109795456e+01 -3.850666497365e-01 +4.014598561894e+00
 8.60000000e+00 -3.725165886672e-01 +3.519627423438e+00 -1.562481340890e+01 -8.553498663812e+01 -1.562481340890e+01 -8.553498663812e+01 -3.732945732535e-01 +3.524491419074e+00
 8.70000000e+00 -3.613653913448e-01 +3.033613225864e+00 -1.599889193430e+01 -8.601314793293e+01 -1.599889193430e+01 -8.601314793293e+01 -3.621470949860e-01 +3.038570149463e+00
 8.80000000e+00 -3.508188115589e-01 +2.551655372534e+00 -1.638628329928e+01 -8.648553966924e+01 -1.638628329928e+01 -8.648553966924e+01 -3.516043163764e-01 +2.556708648224e+00
 8.90000000e+00 -3.408579482130e-01 +2.073631515124e+00 -1.678815806032e+01 -8.695208527818e+01 -1.678815806032e+01 -8.695208527818e+01 -3.416473346232e-01 +2.078784599778e+00
 9.00000000e+00 -3.314648425761e-01 +1.599422964915e+00 -1.720584158568e+01 -8.741266708471e+01 -1.720584158568e+01 -8.741266708471e+01 -3.322581893798e-01 +1.604679349402e+00
 9.10000000e+00 -3.226224282721e-01 +1.128914568296e+00 -1.764084267601e+01 -8.786711764976e+01 -1.764084267601e+01 -8.786711764976e+01 -3.234198127380e-01 +1.134277778717e+00
 9.20000000e+00 -3.143144843299e-01 +6.619945861286e-01 -1.809488913184e+01 -8.831520848462e+01 -1.809488913184e+01 -8.831520848462e+01 -3.151159822725e-01 +6.674681850272e-01
 9.30000000e+00 -3.065255910911e-01 +1.985545769184e-01 -1.856997239301e+01 -8.875663517795e+01 -1.856997239301e+01 -8.875663517795e+01 -3.073312769436e-01 +2.041421644763e-01
 9.40000000e+00 -2.992410887820e-01 -2.615107162425e-01 -1.906840417476e+01 -8.919099755193e+01 -1.906840417476e+01 -8.919099755193e+01 -3.000510356646e-01 -2.558055010278e-01
 9.50000000e+00 -2.924470385758e-01 -7.183034750348e-01 -1.959288918769e+01 -8.961777281794e+01 -1.959288918769e+01 -8.961777281794e+01 -2.932613183596e-01 -7.124769531838e-01
 9.60000000e+00 -2.861301859795e-01 -1.171922911633e+00 -2.014661975202e+01 -9.003627869525e+01 -2.014661975202e+01 -9.003627869525e+01 -2.869488693469e-01 -1.165971363030e+00
 9.70000000e+00 -2.802779263945e-01 -1.622465370866e+00 -2.073340072242e+01 -9.044562185065e+01 -2.073340072242e+01 -9.044562185065e+01 -2.811010828959e-01 -1.616385033116e+00
 9.80000000e+00 -2.748782727093e-01 -2.070024428897e+00 -2.135781717393e+01 -9.084462438816e+01 -2.135781717393e+01 -9.084462438816e+01 -2.757059708164e-01 -2.063811496188e+00
 9.90000000e+00 -2.699198247927e-01 -2.514690988509e+00 -2.202546370540e+01 -9.123171668794e+01 -2.202546370540e+01 -9.123171668794e+01 -2.707521319493e-01 -2.508341610477e+00
 1.00000000e+01 -2.653917407665e-01 -2.956553371073e+00 -2.274326469034e+01 -9.160477717611e+01 -2.274326469035e+01 -9.160477717611e+01 -2.662287234356e-01 -2.950063651682e+00
 1.01000000e+01 -2.612837099435e-01 -3.395697405305e+00 -2.351993250081e+01 -9.196088565085e+01 -2.351993250081e+01 -9.196088565085e+01 -2.621254336532e-01 -3.389063401714e+00
 1.02000000e+01 -2.575859273256e-01 -3.832206512884e+00 -2.436664178227e+01 -9.229593043624e+01 -2.436664178227e+01 -9.229593043624e+01 -2.584324567116e-01 -3.825424234328e+00
 1.03000000e+01 -2.542890695644e-01 -4.266161791036e+00 -2.529805479374e+01 -9.260395731230e+01 -2.529805479374e+01 -9.260395731230e+01 -2.551404684109e-01 -4.259227197700e+00
 1.04000000e+01 -2.513842722915e-01 -4.697642092173e+00 -2.633394275482e+01 -9.287603795444e+01 -2.633394275482e+01 -9.287603795444e+01 -2.522406035698e-01 -4.690551094061e+00
 1.05000000e+01 -2.488631087355e-01 -5.126724100663e+00 -2.750187388111e+01 -9.309818638687e+01 -2.750187388111e+01 -9.309818638687e+01 -2.497244346411e-01 -5.119472556471e+00
 1.06000000e+01 -2.467175695438e-01 -5.553482406853e+00 -2.884193853035e+01 -9.324723723984e+01 -2.884193853035e+01 -9.324723723984e+01 -2.475839515315e-01 -5.546066122831e+00
 1.07000000e+01 -2.449400437380e-01 -5.977989578400e+00 -3.041569708118e+01 -9.328190838236e+01 -3.041569708118e+01 -9.328190838236e+01 -2.458115425557e-01 -5.970404307208e+00
 1.08000000e+01 -2.435233007317e-01 -6.400316229025e+00 -3.232487197560e+01 -9.312090453239e+01 -3.232487197560e+01 -9.312090453239e+01 -2.443999764524e-01 -6.392557668586e+00
 1.09000000e+01 -2.424604733472e-01 -6.820531084760e+00 -3.475609515735e+01 -9.257920160186e+01 -3.475609515735e+01 -9.257920160187e+01 -2.433423853998e-01 -6.812594877099e+00
 1.10000000e+01 -2.417450417719e-01 -7.238701047787e+00 -3.811232068167e+01 -9.112630658578e+01 -3.811232068167e+01 -9.112630658579e+01 -2.426322489709e-01 -7.230582777858e+00
 1.11000000e+01 -2.413708183969e-01 -7.654891257934e+00 -4.356037321099e+01 -8.639399860828e+01 -4.356037321099e+01 -8.639399860829e+01 -2.422633789703e-01 -7.646586452448e+00
 1.12000000e+01 -2.413319334859e-01 -8.069165151936e+00 -5.677848020503e+01 -3.676750850822e+01 -5.677848020503e+01 -3.676750850814e+01 -2.422299051029e-01 -8.060669278160e+00
 1.13000000e+01 -2.416228216266e-01 -8.481584520513e+00 -4.562072374078e+01 +6.772714500875e+01 -4.562072374078e+01 +6.772714500875e+01 -2.425262614232e-01 -8.472892985068e+00
 1.14000000e+01 -2.422382089167e-01 -8.892209563359e+00 -3.924980569932e+01 +7.464443237908e+01 -3.924980569932e+01 +7.464443237907e+01 -2.431471735213e-01 -8.883317710995e+00
 1.15000000e+01 -2.431731008438e-01 -9.301098942114e+00 -3.560122178289e+01 +7.652263667035e+01 -3.560122178289e+01 +7.652263667035e+01 -2.440876464009e-01 -9.292002054478e+00
 1.16000000e+01 -2.444227708182e-01 -9.708309831387e+00 -3.304662814873e+01 +7.722397200784e+01 -3.304662814873e+01 +7.722397200785e+01 -2.453429530118e-01 -9.699003125767e+00
 1.17000000e+01 -2.459827493208e-01 -1.011389796791e+01 -3.108284910585e+01 +7.746985446639e+01 -3.108284910585e+01 +7.746985446639e+01 -2.469086233971e-01 -1.010437659597e+01
 1.18000000e+01 -2.478488136322e-01 -1.051791769789e+01 -2.948913382017e+01 +7.749284646859e+01 -2.948913382017e+01 +7.749284646859e+01 -2.487804344208e-01 -1.050817674435e+01
 1.19000000e+01 -2.500169781089e-01 -1.092042202259e+01 -2.814900931100e+01 +7.739060479712e+01 -2.814900931100e+01 +7.739060479712e+01 -2.509544000437e-01 -1.091045650397e+01
 1.20000000e+01 -2.524834849769e-01 -1.132146264229e+01 -2.699350894499e+01 +7.721127317515e+01 -2.699350894499e+01 +7.721127317515e+01 -2.534267621163e-01 -1.131126750554e+01
 1.21000000e+01 -2.552447956132e-01 -1.172108999858e+01 -2.597841994526e+01 +7.698131353855e+01 -2.597841994526e+01 +7.698131353856e+01 -2.561939816595e-01 -1.171066011973e+01
 1.22000000e+01 -2.582975822888e-01 -1.211935331512e+01 -2.507369962246e+01 +7.671646487025e+01 -2.507369962246e+01 +7.671646487025e+01 -2.592527306065e-01 -1.210868349792e+01
 1.23000000e+01 -2.616387203466e-01 -1.251630063694e+01 -2.425800332539e+01 +7.642666653425e+01 -2.425800332539e+01 +7.642666653425e+01 -2.625998839807e-01 -1.250538561145e+01
 1.24000000e+01 -2.652652807926e-01 -1.291197886820e+01 -2.351562184232e+01 +7.611849766671e+01 -2.351562184232e+01 +7.611849766671e+01 -2.662325124860e-01 -1.290081328938e+01
 1.25000000e+01 -2.691745232758e-01 -1.330643380870e+01 -2.283465794273e+01 +7.579648115661e+01 -2.283465794273e+01 +7.579648115662e+01 -2.701478754857e-01 -1.329501225493e+01
 1.26000000e+01 -2.733638894374e-01 -1.369971018891e+01 -2.220588536647e+01 +7.546382432930e+01 -2.220588536646e+01 +7.546382432930e+01 -2.743434143518e-01 -1.368802716055e+01
 1.27000000e+01 -2.778309966092e-01 -1.409185170385e+01 -2.162200506410e+01 +7.512286113134e+01 -2.162200506410e+01 +7.512286113134e+01 -2.788167461621e-01 -1.407990162172e+01
 1.28000000e+01 -2.825736318425e-01 -1.448290104559e+01 -2.107714350416e+01 +7.477532731557e+01 -2.107714350416e+01 +7.477532731557e+01 -2.835656577289e-01 -1.447067824943e+01
 1.29000000e+01 -2.875897462504e-01 -1.487289993471e+01 -2.056650427313e+01 +7.442253784340e+01 -2.056650427313e+01 +7.442253784340e+01 -2.885880999407e-01 -1.486039868163e+01
 1.30000000e+01 -2.928774496474e-01 -1.526188915046e+01 -2.008611999287e+01 +7.406550476870e+01 -2.008611999287e+01 +7.406550476870e+01 -2.938821824011e-01 -1.524910361335e+01
 1.31000000e+01 -2.984350054704e-01 -1.564990855995e+01 -1.963267177741e+01 +7.370501766219e+01 -1.963267177741e+01 +7.370501766219e+01 -2.994461683493e-01 -1.563683282584e+01
 1.32000000e+01 -3.042608259677e-01 -1.603699714614e+01 -1.920335530197e+01 +7.334169976166e+01 -1.920335530197e+01 +7.334169976166e+01 -3.052784698488e-01 -1.602362521455e+01
 1.33000000e+01 -3.103534676412e-01 -1.642319303495e+01 -1.879577975095e+01 +7.297604798393e+01 -1.879577975095e+01 +7.297604798393e+01 -3.113776432281e-01 -1.640951881618e+01
 1.34000000e+01 -3.167116269295e-01 -1.680853352122e+01 -1.840789041184e+01 +7.260846196019e+01 -1.840789041184e+01 +7.260846196019e+01 -3.177423847648e-01 -1.679455083466e+01
 1.35000000e+01 -3.233341361212e-01 -1.719305509387e+01 -1.803790857176e+01 +7.223926545258e+01 -1.803790857176e+01 +7.223926545258e+01 -3.243715265969e-01 -1.717875766619e+01
 1.36000000e+01 -3.302199594849e-01 -1.757679345999e+01 -1.768428427377e+01 +7.186872238493e+01 -1.768428427377e+01 +7.186872238493e+01 -3.312640328528e-01 -1.756217492340e+01
 1.37000000e+01 -3.373681896067e-01 -1.795978356822e+01 -1.734565876650e+01 +7.149704900291e+01 -1.734565876650e+01 +7.149704900291e+01 -3.384189959886e-01 -1.794483745856e+01
 1.38000000e+01 -3.447780439251e-01 -1.834205963108e+01 -1.702083435454e+01 +7.112442321063e+01 -1.702083435454e+01 +7.112442321063e+01 -3.458356333216e-01 -1.832677938598e+01
 1.39000000e+01 -3.524488614532e-01 -1.872365514663e+01 -1.670874996552e+01 +7.075099181883e+01 -1.670874996552e+01 +7.075099181883e+01 -3.535132837529e-01 -1.870803410359e+01
 1.40000000e+01 -3.603800996807e-01 -1.910460291926e+01 -1.640846118068e+01 +7.037687622934e+01 -1.640846118068e+01 +7.037687622934e+01 -3.614514046678e-01 -1.908863431366e+01
