#  GHZ S DB R 50.0
 1.00000000e-02 -2.696940150237e+01 +3.280907689739e+00 -3.977113443577e-01 -1.845302846436e-01 -3.977113443579e-01 -1.845302846362e-01 -2.697017154375e+01 +3.288279070578e+00
 2.00000000e-02 -2.692491146110e+01 +6.484990864788e+00 -3.979179626072e-01 -3.671170900216e-01 -3.979179626074e-01 -3.671170900177e-01 -2.692562244662e+01 +6.490127804780e+00
 1.00000000e-01 -2.569861677500e+01 +2.932938021216e+01 -4.044555456513e-01 -1.827973966081e+00 -4.044555456514e-01 -1.827973966080e+00 -2.569793732794e+01 +2.933560303140e+01
 2.00000000e-01 -2.318623045159e+01 +4.747106428826e+01 -4.234807077465e-01 -3.632640184415e+00 -4.234807077466e-01 -3.632640184415e+00 -2.318491740601e+01 +4.746763127077e+01
 3.00000000e-01 -2.075272004688e+01 +5.705723178097e+01 -4.520637446997e-01 -5.404651598498e+00 -4.520637446997e-01 -5.404651598497e+00 -2.075202850006e+01 +5.704695511758e+01
 4.00000000e-01 -1.867851900628e+01 +6.206765846963e+01 -4.880686539901e-01 -7.145368746358e+00 -4.880686539902e-01 -7.145368746358e+00 -1.867868213797e+01 +6.205506608430e+01
 5.00000000e-01 -1.694005393378e+01 +6.463700928781e+01 -5.304115431476e-01 -8.859853200165e+00 -5.304115431477e-01 -8.859853200165e+00 -1.694092999247e+01 +6.462487430993e+01
 6.00000000e-01 -1.547111770808e+01 +6.582785848709e+01 -5.787235091344e-01 -1.055215740402e+01 -5.787235091345e-01 -1.055215740402e+01 -1.547249062952e+01 +6.581747325130e+01
 7.00000000e-01 -1.421338420746e+01 +6.619461896152e+01 -6.329288381140e-01 -1.222430952453e+01 -6.329288381140e-01 -1.222430952453e+01 -1.421506305978e+01 +6.618640321589e+01
 8.00000000e-01 -1.312224189247e+01 +6.604429417592e+01 -6.930104946543e-01 -1.387679329424e+01 -6.930104946544e-01 -1.387679329424e+01 -1.312408271214e+01 +6.603822219441e+01
 9.00000000e-01 -1.216452042479e+01 +6.555663159702e+01 -7.589210979815e-01 -1.550920660855e+01 -7.589210979815e-01 -1.550920660855e+01 -1.216642281192e+01 +6.555247815180e+01
 1.00000000e+00 -1.131548317330e+01 +6.484226040311e+01 -8.305630098011e-01 -1.712073284582e+01 -8.305630098011e-01 -1.712073284582e+01 -1.131738083357e+01 +6.483973125559e+01
 1.10000000e+00 -1.055643072652e+01 +6.397233057278e+01 -9.077934355573e-01 -1.871041835756e+01 -9.077934355573e-01 -1.871041835756e+01 -1.055828217956e+01 +6.397112757108e+01
 1.20000000e+00 -9.872985514191e+00 +6.299438407550e+01 -9.904357312838e-01 -2.027732041778e+01 -9.904357312838e-01 -2.027732041778e+01 -9.874766585194e+00 +6.299423485346e+01
 1.30000000e+00 -9.253898513435e+00 +6.194124860629e+01 -1.078290322048e+00 -2.182057997094e+01 -1.078290322049e+00 -2.182057997094e+01 -9.255596721383e+00 +6.194191765662e+01
 1.40000000e+00 -8.690220578525e+00 +6.083623388363e+01 -1.171143500303e+00 -2.333945340362e+01 -1.171143500303e+00 -2.333945340362e+01 -8.691831112700e+00 +6.083752419702e+01
 1.50000000e+00 -8.174721654143e+00 +5.969628575978e+01 -1.268774045904e+00 -2.483332280314e+01 -1.268774045904e+00 -2.483332280314e+01 -8.176244568074e+00 +5.969803602322e+01
 1.60000000e+00 -7.701478052911e+00 +5.853396828294e+01 -1.370958066417e+00 -2.630169529664e+01 -1.370958066417e+00 -2.630169529664e+01 -7.702916350398e+00 +5.853604831022e+01
 1.70000000e+00 -7.265574569866e+00 +5.735874889230e+01 -1.477472498094e+00 -2.774419711204e+01 -1.477472498094e+00 -2.774419711204e+01 -7.266932926363e+00 +5.736105467204e+01
 1.80000000e+00 -6.862886053793e+00 +5.617785561396e+01 -1.588097632724e+00 -2.916056531771e+01 -1.588097632724e+00 -2.916056531771e+01 -6.864169980847e+00 +5.618030464708e+01
 1.90000000e+00 -6.489914761498e+00 +5.499686348977e+01 -1.702618944625e+00 -3.055063875991e+01 -1.702618944625e+00 -3.055063875991e+01 -6.491130074582e+00 +5.499939069787e+01
 2.00000000e+00 -6.143667472410e+00 +5.382010503939e+01 -1.820828414875e+00 -3.191434895322e+01 -1.820828414875e+00 -3.191434895322e+01 -6.144819963010e+00 +5.382265931915e+01
 2.10000000e+00 -5.821561370537e+00 +5.265096354699e+01 -1.942525491331e+00 -3.325171127715e+01 -1.942525491331e+00 -3.325171127715e+01 -5.822656613400e+00 +5.265350494320e+01
 2.20000000e+00 -5.521351041496e+00 +5.149208658781e+01 -2.067517780830e+00 -3.456281662559e+01 -2.067517780830e+00 -3.456281662559e+01 -5.522394289628e+00 +5.149458401274e+01
 2.30000000e+00 -5.241071179422e+00 +5.034554417360e+01 -2.195621540396e+00 -3.584782355401e+01 -2.195621540396e+00 -3.584782355401e+01 -5.242067314834e+00 +5.034797358675e+01
 2.40000000e+00 -4.978991131137e+00 +4.921294774506e+01 -2.326662014001e+00 -3.710695092287e+01 -2.326662014001e+00 -3.710695092287e+01 -4.979944650027e+00 +4.921529070973e+01
 2.50000000e+00 -4.733578465026e+00 +4.809554102495e+01 -2.460473647641e+00 -3.834047101791e+01 -2.460473647641e+00 -3.834047101791e+01 -4.734493483459e+00 +4.809778356706e+01
 2.60000000e+00 -4.503469495624e+00 +4.699427033760e+01 -2.596900206359e+00 -3.954870312401e+01 -2.596900206359e+00 -3.954870312401e+01 -4.504349766736e+00 +4.699640204394e+01
 2.70000000e+00 -4.287445223661e+00 +4.590983973104e+01 -2.735794810736e+00 -4.073200753097e+01 -2.735794810736e+00 -4.073200753097e+01 -4.288294160753e+00 +4.591185303555e+01
 2.80000000e+00 -4.084411532195e+00 +4.484275469946e+01 -2.877019906462e+00 -4.189077995313e+01 -2.877019906462e+00 -4.189077995313e+01 -4.085232234238e+00 +4.484464431667e+01
 2.90000000e+00 -3.893382757141e+00 +4.379335724501e+01 -3.020447177941e+00 -4.302544634770e+01 -3.020447177941e+00 -4.302544634770e+01 -3.894178034643e+00 +4.379511971831e+01
 3.00000000e+00 -3.713467955367e+00 +4.276185427858e+01 -3.165957415204e+00 -4.413645811920e+01 -3.165957415204e+00 -4.413645811920e+01 -3.714240355451e+00 +4.276348761834e+01
 3.10000000e+00 -3.543859346213e+00 +4.174834083641e+01 -3.313440342159e+00 -4.522428769825e+01 -3.313440342159e+00 -4.522428769825e+01 -3.544611176308e+00 +4.174984422858e+01
 3.20000000e+00 -3.383822517198e+00 +4.075281921590e+01 -3.462794413386e+00 -4.628942448306e+01 -3.462794413386e+00 -4.628942448306e+01 -3.384555867061e+00 +4.075419278615e+01
 3.30000000e+00 -3.232688071956e+00 +3.977521486343e+01 -3.613926585916e+00 -4.733237113141e+01 -3.613926585916e+00 -4.733237113141e+01 -3.233404833990e+00 +3.977645948540e+01
 3.40000000e+00 -3.089844465329e+00 +3.881538965007e+01 -3.766752071893e+00 -4.835364018995e+01 -3.766752071893e+00 -4.835364018995e+01 -3.090546353203e+00 +3.881650678886e+01
 3.50000000e+00 -2.954731822059e+00 +3.787315302546e+01 -3.921194077423e+00 -4.935375104633e+01 -3.921194077423e+00 -4.935375104633e+01 -2.955420387750e+00 +3.787414460954e+01
 3.60000000e+00 -2.826836575674e+00 +3.694827143212e+01 -4.077183532402e+00 -5.033322718856e+01 -4.077183532402e+00 -5.033322718856e+01 -2.827513225033e+00 +3.694913974838e+01
 3.70000000e+00 -2.705686795480e+00 +3.604047628146e+01 -4.234658815608e+00 -5.129259375487e+01 -4.234658815608e+00 -5.129259375487e+01 -2.706352802445e+00 +3.604122388917e+01
 3.80000000e+00 -2.590848094284e+00 +3.514947073094e+01 -4.393565478848e+00 -5.223237535673e+01 -4.393565478848e+00 -5.223237535673e+01 -2.591504613855e+00 +3.515010039137e+01
 3.90000000e+00 -2.481920029024e+00 +3.427493545526e+01 -4.553855973492e+00 -5.315309415700e+01 -4.553855973492e+00 -5.315309415700e+01 -2.482568109106e+00 +3.427545007432e+01
 4.00000000e+00 -2.378532922052e+00 +3.341653356801e+01 -4.715489382258e+00 -5.405526818486e+01 -4.715489382258e+00 -5.405526818486e+01 -2.379173514257e+00 +3.341693614971e+01
 4.10000000e+00 -2.280345043296e+00 +3.257391482180e+01 -4.878431158741e+00 -5.493940986943e+01 -4.878431158741e+00 -5.493940986943e+01 -2.280979012788e+00 +3.257420843095e+01
 4.20000000e+00 -2.187040103564e+00 +3.174671919314e+01 -5.042652876757e+00 -5.580602477409e+01 -5.042652876757e+00 -5.580602477409e+01 -2.187668238024e+00 +3.174690692562e+01
 4.30000000e+00 -2.098325017388e+00 +3.093457994012e+01 -5.208131991259e+00 -5.665561051380e+01 -5.208131991259e+00 -5.665561051380e+01 -2.098948035163e+00 +3.093466489968e+01
 4.40000000e+00 -2.013927900421e+00 +3.013712620721e+01 -5.374851612269e+00 -5.748865583879e+01 -5.374851612269e+00 -5.748865583879e+01 -2.014546457913e+00 +3.013711148776e+01
 4.50000000e+00 -1.933596271801e+00 +2.935398523984e+01 -5.542800293001e+00 -5.830563986831e+01 -5.542800293001e+00 -5.830563986831e+01 -1.934210970158e+00 +2.935387391227e+01
 4.60000000e+00 -1.857095436368e+00 +2.858478426202e+01 -5.711971833129e+00 -5.910703145921e+01 -5.711971833129e+00 -5.910703145921e+01 -1.857706827513e+00 +2.858457936484e+01
 4.70000000e+00 -1.784207025250e+00 +2.782915206255e+01 -5.882365097952e+00 -5.989328869502e+01 -5.882365097952e+00 -5.989328869502e+01 -1.784815617309e+00 +2.782885659577e+01
 4.80000000e+00 -1.714727676436e+00 +2.708672032897e+01 -6.053983854055e+00 -6.066485848206e+01 -6.053983854055e+00 -6.066485848206e+01 -1.715333938596e+00 +2.708633725058e+01
 4.90000000e+00 -1.648467839458e+00 +2.635712476298e+01 -6.226836621942e+00 -6.142217624017e+01 -6.226836621942e+00 -6.142217624017e+01 -1.649072206300e+00 +2.635665698747e+01
 5.00000000e+00 -1.585250690463e+00 +2.564000600639e+01 -6.400936546011e+00 -6.216566567655e+01 -6.400936546011e+00 -6.216566567655e+01 -1.585853565816e+00 +2.563945640504e+01
 5.10000000e+00 -1.524911145745e+00 +2.493501040294e+01 -6.576301282185e+00 -6.289573863218e+01 -6.576301282185e+00 -6.289573863218e+01 -1.525512906082e+00 +2.493438180538e+01
 5.20000000e+00 -1.467294963317e+00 +2.424179061797e+01 -6.752952903452e+00 -6.361279499104e+01 -6.752952903452e+00 -6.361279499104e+01 -1.467895960755e+00 +2.424108581472e+01
 5.30000000e+00 -1.412257923434e+00 +2.356000613503e+01 -6.930917823568e+00 -6.431722264340e+01 -6.930917823568e+00 -6.431722264340e+01 -1.412858488348e+00 +2.355922788069e+01
 5.40000000e+00 -1.359665080035e+00 +2.288932364599e+01 -7.110226739165e+00 -6.500939749513e+01 -7.110226739165e+00 -6.500939749513e+01 -1.360265523340e+00 +2.288847466297e+01
 5.50000000e+00 -1.309390076058e+00 +2.222941734949e+01 -7.290914590529e+00 -6.568968351572e+01 -7.290914590529e+00 -6.568968351572e+01 -1.309990691188e+00 +2.222850033184e+01
 5.60000000e+00 -1.261314516383e+00 +2.157996917002e+01 -7.473020541359e+00 -6.635843281835e+01 -7.473020541359e+00 -6.635843281835e+01 -1.261915580997e+00 +2.157898678747e+01
 5.70000000e+00 -1.215327392862e+00 +2.094066890908e+01 -7.656587977874e+00 -6.701598576614e+01 -7.656587977874e+00 -6.701598576614e+01 -1.215929170317e+00 +2.093962381091e+01
 5.80000000e+00 -1.171324556527e+00 +2.031121433793e+01 -7.841664527714e+00 -6.766267109905e+01 -7.841664527714e+00 -6.766267109905e+01 -1.171927297136e+00 +2.031010915670e+01
 5.90000000e+00 -1.129208232564e+00 +1.969131124043e+01 -8.028302099177e+00 -6.829880607658e+01 -8.028302099177e+00 -6.829880607658e+01 -1.129812174688e+00 +1.969014859546e+01
 6.00000000e+00 -1.088886574153e+00 +1.908067341339e+01 -8.216556941438e+00 -6.892469663167e+01 -8.216556941438e+00 -6.892469663167e+01 -1.089491945135e+00 +1.907945591391e+01
 6.10000000e+00 -1.050273251657e+00 +1.847902263089e+01 -8.406489726536e+00 -6.954063753196e+01 -8.406489726536e+00 -6.954063753196e+01 -1.050880268635e+00 +1.847775287891e+01
 6.20000000e+00 -1.013287073998e+00 +1.788608857826e+01 -8.598165654075e+00 -7.014691254434e+01 -8.598165654075e+00 -7.014691254434e+01 -1.013895944618e+00 +1.788476917102e+01
 6.30000000e+00 -9.778516394042e-01 +1.730160876051e+01 -8.791654579722e+00 -7.074379459952e+01 -8.791654579722e+00 -7.074379459952e+01 -9.784625624476e-01 +1.730024229269e+01
 6.40000000e+00 -9.438950129574e-01 +1.672532838967e+01 -8.987031168830e+00 -7.133154595337e+01 -8.987031168830e+00 -7.133154595337e+01 -9.445081789099e-01 +1.672391745526e+01
 6.50000000e+00 -9.113494286573e-01 +1.615700025469e+01 -9.184375076692e+00 -7.191041834178e+01 -9.184375076692e+00 -7.191041834178e+01 -9.119650202256e-01 +1.615554744857e+01
 6.60000000e+00 -8.801510139072e-01 +1.559638457711e+01 -9.383771157206e+00 -7.248065312620e+01 -9.383771157206e+00 -7.248065312620e+01 -8.807692064997e-01 +1.559489249644e+01
 6.70000000e+00 -8.502395345462e-01 +1.504324885543e+01 -9.585309702027e+00 -7.304248142697e+01 -9.585309702027e+00 -7.304248142697e+01 -8.508604967257e-01 +1.504172010087e+01
 6.80000000e+00 -8.215581587186e-01 +1.449736770054e+01 -9.789086712558e+00 -7.359612424142e+01 -9.789086712558e+00 -7.359612424142e+01 -8.221820526340e-01 +1.449580487730e+01
 6.90000000e+00 -7.940532380322e-01 +1.395852266435e+01 -9.995204207567e+00 -7.414179254380e+01 -9.995204207567e+00 -7.414179254380e+01 -7.946802198336e-01 +1.395692838320e+01
 7.00000000e+00 -7.676741045989e-01 +1.342650206348e+01 -1.020377056959e+01 -7.467968736413e+01 -1.020377056959e+01 -7.467968736413e+01 -7.683043248388e-01 +1.342487894170e+01
 7.10000000e+00 -7.423728826770e-01 +1.290110079953e+01 -1.041490093375e+01 -7.520999984242e+01 -1.041490093375e+01 -7.520999984242e+01 -7.430064866988e-01 +1.289945146182e+01
 7.20000000e+00 -7.181043137495e-01 +1.238212017734e+01 -1.062871762328e+01 -7.573291125501e+01 -1.062871762328e+01 -7.573291125501e+01 -7.187414420627e-01 +1.238044725679e+01
 7.30000000e+00 -6.948255939756e-01 +1.186936772232e+01 -1.084535063650e+01 -7.624859300894e+01 -1.084535063650e+01 -7.624859300894e+01 -6.954663826171e-01 +1.186767386142e+01
 7.40000000e+00 -6.724962230446e-01 +1.136265699790e+01 -1.106493819090e+01 -7.675720660021e+01 -1.106493819090e+01 -7.675720660021e+01 -6.731408039245e-01 +1.136094484960e+01
 7.50000000e+00 -6.510778635471e-01 +1.086180742393e+01 -1.128762733076e+01 -7.725890353087e+01 -1.128762733076e+01 -7.725890353087e+01 -6.517263647772e-01 +1.086007965274e+01
 7.60000000e+00 -6.305342100527e-01 +1.036664409668e+01 -1.151357460578e+01 -7.775382517956e+01 -1.151357460578e+01 -7.775382517956e+01 -6.311867562555e-01 +1.036490337987e+01
 7.70000000e+00 -6.108308671515e-01 +9.876997611071e+00 -1.174294682923e+01 -7.824210261884e+01 -1.174294682923e+01 -7.824210261884e+01 -6.114875797485e-01 +9.875246639915e+00
 7.80000000e+00 -5.919352357819e-01 +9.392703885646e+00 -1.197592192577e+01 -7.872385637203e+01 -1.197592192577e+01 -7.872385637203e+01 -5.925962332600e-01 +9.390945366712e+00
 7.90000000e+00 -5.738164072210e-01 +8.913603990598e+00 -1.221268988042e+01 -7.919919610063e+01 -1.221268988042e+01 -7.919919610063e+01 -5.744818053751e-01 +8.911840647098e+00
 8.00000000e+00 -5.564450641653e-01 +8.439543979276e+00 -1.245345380217e+01 -7.966822021207e+01 -1.245345380217e+01 -7.966822021207e+01 -5.571149763188e-01 +8.437778552438e+00
 8.10000000e+00 -5.397933883797e-01 +7.970374723373e+00 -1.269843111819e+01 -8.013101537539e+01 -1.269843111819e+01 -8.013101537539e+01 -5.404679255800e-01 +7.968609973823e+00
 8.20000000e+00 -5.238349744299e-01 +7.505951752011e+00 -1.294785491687e+01 -8.058765593035e+01 -1.294785491687e+01 -8.058765593035e+01 -5.245142456224e-01 +7.504190461164e+00
 8.30000000e+00 -5.085447490570e-01 +7.046135094880e+00 -1.320197546160e+01 -8.103820317219e+01 -1.320197546160e+01 -8.103820317219e+01 -5.092288612365e-01 +7.044380066315e+00
 8.40000000e+00 -4.938988957859e-01 +6.590789129535e+00 -1.346106190087e+01 -8.148270449112e+01 -1.346106190087e+01 -8.148270449112e+01 -4.945879541269e-01 +6.589043190348e+00
 8.50000000e+00 -4.798747843917e-01 +6.139782432932e+00 -1.372540420490e+01 -8.192119234061e+01 -1.372540420490e+01 -8.192119234061e+01 -4.805688923603e-01 +6.138048435051e+00
 8.60000000e+00 -4.664509048786e-01 +5.692987637235e+00 -1.399531536494e+01 -8.235368300350e+01 -1.399531536494e+01 -8.235368300350e+01 -4.671501643263e-01 +5.691268458700e+00
 8.70000000e+00 -4.536068056519e-01 +5.250281289928e+00 -1.427113389806e+01 -8.278017511757e+01 -1.427113389806e+01 -8.278017511757e+01 -4.543113168940e-01 +5.248579836106e+00
 8.80000000e+00 -4.413230355898e-01 +4.811543718200e+00 -1.455322670906e+01 -8.320064791374e+01 -1.455322670906e+01 -8.320064791374e+01 -4.420328974698e-01 +4.809862922957e+00
 8.90000000e+00 -4.295810897416e-01 +4.376658897597e+00 -1.484199237129e+01 -8.361505910864e+01 -1.484199237129e+01 -8.361505910863e+01 -4.302963996842e-01 +4.375001724408e+00
 9.00000000e+00 -4.183633584035e-01 +3.945514324890e+00 -1.513786490156e+01 -8.402334237944e+01 -1.513786490156e+01 -8.402334237944e+01 -4.190842124570e-01 +3.943883767886e+00
 9.10000000e+00 -4.076530793379e-01 +3.518000895103e+00 -1.544131812004e+01 -8.442540433044e+01 -1.544131812004e+01 -8.442540433044e+01 -4.083795722090e-01 +3.516399980063e+00
 9.20000000e+00 -3.974342929241e-01 +3.094012782635e+00 -1.575287070692e+01 -8.482112083749e+01 -1.575287070692e+01 -8.482112083749e+01 -3.981665180056e-01 +3.092444567915e+00
 9.30000000e+00 -3.876918000394e-01 +2.673447326395e+00 -1.607309209284e+01 -8.521033262583e+01 -1.607309209284e+01 -8.521033262583e+01 -3.884298494331e-01 +2.671914903805e+00
 9.40000000e+00 -3.784111224888e-01 +2.256204918872e+00 -1.640260935284e+01 -8.559283989679e+01 -1.640260935284e+01 -8.559283989679e+01 -3.791550870249e-01 +2.254711414504e+00
 9.50000000e+00 -3.695784658126e-01 +1.842188899051e+00 -1.674211531569e+01 -8.596839576584e+01 -1.674211531569e+01 -8.596839576584e+01 -3.703284350659e-01 +1.840737474052e+00
 9.60000000e+00 -3.611806843131e-01 +1.431305449068e+00 -1.709237815379e+01 -8.633669820369e+01 -1.709237815379e+01 -8.633669820369e+01 -3.619367466185e-01 +1.429899300378e+00
 9.70000000e+00 -3.532052481558e-01 +1.023463494517e+00 -1.745425278998e+01 -8.669738007679e+01 -1.745425278998e+01 -8.669738007679e+01 -3.539674906226e-01 +1.022105855571e+00
 9.80000000e+00 -3.456402124077e-01 +6.185746083149e-01 -1.782869454913e+01 -8.704999675374e+01 -1.782869454913e+01 -8.704999675374e+01 -3.464087209345e-01 +6.172687497040e-01
 9.90000000e+00 -3.384741878885e-01 +2.165529179964e-01 -1.821677560567e+01 -8.739401056531e+01 -1.821677560567e+01 -8.739401056531e+01 -3.392490471780e-01 +2.153021481144e-01
 1.00000000e+01 -3.316963137155e-01 -1.826849836327e-01 -1.861970494204e+01 -8.772877115677e+01 -1.861970494204e+01 -8.772877115677e+01 -3.324776072910e-01 -1.838773179703e-01
 1.01000000e+01 -3.252962314351e-01 -5.792201246100e-01 -1.903885275607e+01 -8.805349041964e+01 -1.903885275607e+01 -8.805349041964e+01 -3.260840416583e-01 -5.803506375598e-01
 1.02000000e+01 -3.192640606400e-01 -9.731312367913e-01 -1.947578056099e+01 -8.836721018735e+01 -1.947578056099e+01 -8.836721018735e+01 -3.200584687303e-01 -9.741965028862e-01
 1.03000000e+01 -3.135903759760e-01 -1.364494835790e+00 -1.993227864656e+01 -8.866876014873e+01 -1.993227864656e+01 -8.866876014873e+01 -3.143914620311e-01 -1.365491389349e+00
 1.04000000e+01 -3.082661854533e-01 -1.753385297983e+00 -2.041041316907e+01 -8.895670235543e+01 -2.041041316907e+01 -8.895670235543e+01 -3.090740284725e-01 -1.754309632521e+00
 1.05000000e+01 -3.032829099799e-01 -2.139874934681e+00 -2.091258599585e+01 -8.922925707952e+01 -2.091258599585e+01 -8.922925707952e+01 -3.040975878882e-01 -2.140723502319e+00
 1.06000000e+01 -2.986323640404e-01 -2.524034063566e+00 -2.144161167921e+01 -8.948420229541e+01 -2.144161167921e+01 -8.948420229541e+01 -2.994539537146e-01 -2.524803274429e+00
 1.07000000e+01 -2.943067374512e-01 -2.905931077481e+00 -2.200081778801e+01 -8.971873517459e+01 -2.200081778801e+01 -8.971873517459e+01 -2.951353147476e-01 -2.906617299090e+00
 1.08000000e+01 -2.902985781249e-01 -3.285632510677e+00 -2.259417763117e+01 -8.992927775223e+01 -2.259417763117e+01 -8.992927775223e+01 -2.911342179077e-01 -3.286232067330e+00
 1.09000000e+01 -2.866007757827e-01 -3.663203102610e+00 -2.322648875374e+01 -9.011119866880e+01 -2.322648875374e+01 -9.011119866880e+01 -2.874435519545e-01 -3.663712274739e+00
 1.10000000e+01 -2.832065465585e-01 -4.038705859360e+00 -2.390361749014e+01 -9.025840549664e+01 -2.390361749014e+01 -9.025840549664e+01 -2.840565320906e-01 -4.039120882879e+00
 1.11000000e+01 -2.801094184393e-01 -4.412202112778e+00 -2.463284114167e+01 -9.036273165766e+01 -2.463284114167e+01 -9.036273165766e+01 -2.809666854032e-01 -4.412519178408e+00
 1.12000000e+01 -2.773032174939e-01 -4.783751577440e+00 -2.542333838345e+01 -9.041298635822e+01 -2.542333838345e+01 -9.041298635822e+01 -2.781678370931e-01 -4.783966830011e+00
 1.13000000e+01 -2.747820548421e-01 -5.153412405481e+00 -2.628691182067e+01 -9.039343015685e+01 -2.628691182067e+01 -9.039343015685e+01 -2.756540974441e-01 -5.153521943213e+00
 1.14000000e+01 -2.725403143206e-01 -5.521241239399e+00 -2.723908739585e+01 -9.028122680818e+01 -2.723908739585e+01 -9.028122680818e+01 -2.734198494885e-01 -5.521241113159e+00
 1.15000000e+01 -2.705726408060e-01 -5.887293262900e+00 -2.830085171286e+01 -9.004197112413e+01 -2.830085171286e+01 -9.004197112412e+01 -2.714597373303e-01 -5.887179475433e+00
 1.16000000e+01 -2.688739291561e-01 -6.251622249859e+00 -2.950152394470e+01 -8.962136213586e+01 -2.950152394470e+01 -8.962136213586e+01 -2.697686550850e-01 -6.251390754996e+00
 1.17000000e+01 -2.674393137327e-01 -6.614280611474e+00 -3.088376820141e+01 -8.892852094191e+01 -3.088376820141e+01 -8.892852094191e+01 -2.683417364027e-01 -6.613927313311e+00
 1.18000000e+01 -2.662641584750e-01 -6.975319441665e+00 -3.251293919970e+01 -8.779930598482e+01 -3.251293919970e+01 -8.779930598482e+01 -2.671743445396e-01 -6.974840193717e+00
 1.19000000e+01 -2.653440474900e-01 -7.334788560811e+00 -3.449596069906e+01 -8.590512284200e+01 -3.449596069906e+01 -8.590512284200e+01 -2.662620629475e-01 -7.334179165142e+00
 1.20000000e+01 -2.646747761322e-01 -7.692736557865e+00 -3.702308574101e+01 -8.248471391909e+01 -3.702308574101e+01 -8.248471391908e+01 -2.656006863520e-01 -7.691992764186e+00
 1.21000000e+01 -2.642523425439e-01 -8.049210830925e+00 -4.046513596197e+01 -7.533965304609e+01 -4.046513596197e+01 -7.533965304608e+01 -2.651862122915e-01 -8.048328335669e+00
 1.22000000e+01 -2.640729396316e-01 -8.404257626305e+00 -4.545163283818e+01 -5.562820469429e+01 -4.545163283818e+01 -5.562820469428e+01 -2.650148330912e-01 -8.403232071677e+00
 1.23000000e+01 -2.641329474533e-01 -8.757922076186e+00 -4.863384831441e+01 +5.025723802984e+00 -4.863384831441e+01 +5.025723802983e+00 -2.650829282491e-01 -8.756749049181e+00
 1.24000000e+01 -2.644289259949e-01 -9.110248234876e+00 -4.349463802512e+01 +4.867007871287e+01 -4.349463802512e+01 +4.867007871287e+01 -2.653870572099e-01 -9.108923266278e+00
 1.25000000e+01 -2.649576083138e-01 -9.461279113754e+00 -3.917588837079e+01 +6.176116712486e+01 -3.917588837079e+01 +6.176116712486e+01 -2.659239525069e-01 -9.459797677101e+00
 1.26000000e+01 -2.657158940306e-01 -9.811056714931e+00 -3.616983255549e+01 +6.711595721467e+01 -3.616983255549e+01 +6.711595721467e+01 -2.666905132508e-01 -9.809414225464e+00
 1.27000000e+01 -2.667008431492e-01 -1.015962206369e+01 -3.391399421078e+01 +6.985520222328e+01 -3.391399421078e+01 +6.985520222328e+01 -2.676837989477e-01 -1.015781387727e+01
 1.28000000e+01 -2.679096701879e-01 -1.050701523977e+01 -3.211951590517e+01 +7.142999491219e+01 -3.211951590517e+01 +7.142999491219e+01 -2.689010236282e-01 -1.050503665176e+01
 1.29000000e+01 -2.693397386064e-01 -1.085327540743e+01 -3.063359166357e+01 +7.239074003724e+01 -3.063359166357e+01 +7.239074003724e+01 -2.703395502707e-01 -1.085112165159e+01
 1.30000000e+01 -2.709885555105e-01 -1.119844084458e+01 -2.936751082374e+01 +7.298954405792e+01 -2.936751082374e+01 +7.298954405792e+01 -2.719968855045e-01 -1.119610709188e+01
 1.31000000e+01 -2.728537666227e-01 -1.154254897070e+01 -2.826564041084e+01 +7.335763167417e+01 -2.826564041084e+01 +7.335763167417e+01 -2.738706745774e-01 -1.154003032816e+01
 1.32000000e+01 -2.749331515028e-01 -1.188563637383e+01 -2.729093148042e+01 +7.356988155109e+01 -2.729093148042e+01 +7.356988155109e+01 -2.759586965732e-01 -1.188292788331e+01
 1.33000000e+01 -2.772246190067e-01 -1.222773883660e+01 -2.641752098127e+01 +7.367207922382e+01 -2.641752098127e+01 +7.367207922381e+01 -2.782588598682e-01 -1.222483547358e+01
 1.34000000e+01 -2.797262029711e-01 -1.256889136132e+01 -2.562666178518e+01 +7.369377051874e+01 -2.562666178518e+01 +7.369377051874e+01 -2.807691978126e-01 -1.256578803364e+01
 1.35000000e+01 -2.824360581119e-01 -1.290912819411e+01 -2.490434161520e+01 +7.365486220990e+01 -2.490434161520e+01 +7.365486220989e+01 -2.834878646266e-01 -1.290581974069e+01
 1.36000000e+01 -2.853524561269e-01 -1.324848284824e+01 -2.423981760480e+01 +7.356924873321e+01 -2.423981760480e+01 +7.356924873321e+01 -2.864131314995e-01 -1.324496403781e+01
 1.37000000e+01 -2.884737819907e-01 -1.358698812662e+01 -2.362467547144e+01 +7.344691758369e+01 -2.362467547144e+01 +7.344691758369e+01 -2.895433828825e-01 -1.358325365637e+01
 1.38000000e+01 -2.917985304345e-01 -1.392467614347e+01 -2.305220358303e+01 +7.329522866858e+01 -2.305220358303e+01 +7.329522866858e+01 -2.928771129648e-01 -1.392072063774e+01
 1.39000000e+01 -2.953253025994e-01 -1.426157834524e+01 -2.251696365960e+01 +7.311972225420e+01 -2.251696365960e+01 +7.311972225420e+01 -2.964129223243e-01 -1.425739635411e+01
 1.40000000e+01 -2.990528028562e-01 -1.459772553072e+01 -2.201448850703e+01 +7.292464630456e+01 -2.201448850703e+01 +7.292464630456e+01 -3.001495147447e-01 -1.459331152867e+01
