#  GHZ S DB R 50.0
 1.00000000e-02 -2.696796244266e+01 +3.231994954901e+00 -3.977998728251e-01 -1.837301613497e-01 -3.977998728252e-01 -1.837301613455e-01 -2.696795290018e+01 +3.232536447166e+00
 2.00000000e-02 -2.692409391103e+01 +6.441204066345e+00 -3.980177996527e-01 -3.673910800439e-01 -3.980177996528e-01 -3.673910800418e-01 -2.692405300238e+01 +6.442256354795e+00
 1.00000000e-01 -2.570858997602e+01 +2.925251876775e+01 -4.047035453873e-01 -1.832132367144e+00 -4.047035453873e-01 -1.832132367143e+00 -2.570789037944e+01 +2.925423915135e+01
 2.00000000e-01 -2.320461882918e+01 +4.743595259562e+01 -4.241480931133e-01 -3.639939338861e+00 -4.241480931133e-01 -3.639939338861e+00 -2.320357872941e+01 +4.743163185731e+01
 3.00000000e-01 -2.077025492614e+01 +5.706511058573e+01 -4.531798278688e-01 -5.413429798516e+00 -4.531798278689e-01 -5.413429798516e+00 -2.076971898744e+01 +5.705573004041e+01
 4.00000000e-01 -1.869234203434e+01 +6.209413902724e+01 -4.895311470706e-01 -7.154940112480e+00 -4.895311470706e-01 -7.154940112479e+00 -1.869252948505e+01 +6.208305387948e+01
 5.00000000e-01 -1.695017835695e+01 +6.466630073461e+01 -5.321240393559e-01 -8.870404666709e+00 -5.321240393559e-01 -8.870404666709e+00 -1.695098377032e+01 +6.465581683395e+01
 6.00000000e-01 -1.547811776594e+01 +6.585260254277e+01 -5.806399340405e-01 -1.056434145934e+01 -5.806399340405e-01 -1.056434145934e+01 -1.547935838830e+01 +6.584383973245e+01
 7.00000000e-01 -1.421773067192e+01 +6.621173700835e+01 -6.350514257023e-01 -1.223897586316e+01 -6.350514257024e-01 -1.223897586316e+01 -1.421923943672e+01 +6.620506867612e+01
 8.00000000e-01 -1.312421651482e+01 +6.605246284594e+01 -6.953780633761e-01 -1.389487028938e+01 -6.953780633762e-01 -1.389487028938e+01 -1.312586483201e+01 +6.604786879558e+01
 9.00000000e-01 -1.216426227089e+01 +6.555513244066e+01 -7.615997881341e-01 -1.553165986991e+01 -7.615997881342e-01 -1.553165986991e+01 -1.216595889921e+01 +6.555241004650e+01
 1.00000000e+00 -1.131304260722e+01 +6.483051645661e+01 -8.336408232895e-01 -1.714855304000e+01 -8.336408232896e-01 -1.714855304000e+01 -1.131472635562e+01 +6.482939555912e+01
 1.10000000e+00 -1.055180793948e+01 +6.394973883420e+01 -9.113773903444e-01 -1.874461733683e+01 -9.113773903444e-01 -1.874461733683e+01 -1.055344002924e+01 +6.394994098575e+01
 1.20000000e+00 -9.866154782111e+00 +6.296026677761e+01 -9.946504630353e-01 -2.031892833613e+01 -9.946504630353e-01 -2.031892833613e+01 -9.867712458898e+00 +6.296153380748e+01
 1.30000000e+00 -9.244822825698e+00 +6.189484932861e+01 -1.083277396346e+00 -2.187064148142e+01 -1.083277396346e+00 -2.187064148142e+01 -9.246294431268e+00 +6.189695527978e+01
 1.40000000e+00 -8.678860329776e+00 +6.077672886990e+01 -1.177061034784e+00 -2.339902284398e+01 -1.177061034784e+00 -2.339902284398e+01 -8.680241647905e+00 +6.077948307934e+01
 1.50000000e+00 -8.161039771478e+00 +5.962279901581e+01 -1.275796441535e+00 -2.490345874074e+01 -1.275796441535e+00 -2.490345874074e+01 -8.162331388071e+00 +5.962604465678e+01
 1.60000000e+00 -7.685442982469e+00 +5.844558632689e+01 -1.379275754552e+00 -2.638345482717e+01 -1.379275754552e+00 -2.638345482717e+01 -7.686648420436e+00 +5.844919683079e+01
 1.70000000e+00 -7.247161959894e+00 +5.725453387539e+01 -1.487291664899e+00 -2.783863021721e+01 -1.487291664899e+00 -2.783863021721e+01 -7.248286392074e+00 +5.725840858342e+01
 1.80000000e+00 -6.842079626820e+00 +5.605685658543e+01 -1.599639909590e+00 -2.926870949093e+01 -1.599639909590e+00 -2.926870949093e+01 -6.843129012331e+00 +5.606091636819e+01
 1.90000000e+00 -6.466706669677e+00 +5.485812593092e+01 -1.716121066102e+00 -3.067351403321e+01 -1.716121066102e+00 -3.067351403321e+01 -6.467687194846e+00 +5.486230915610e+01
 2.00000000e+00 -6.118058315806e+00 +5.366267887693e+01 -1.836541851478e+00 -3.205295340405e+01 -1.836541851478e+00 -3.205295340405e+01 -6.118976049751e+00 +5.366693789441e+01
 2.10000000e+00 -5.793559991843e+00 +5.247390985055e+01 -1.960716066974e+00 -3.340701705653e+01 -1.960716066974e+00 -3.340701705653e+01 -5.794420689691e+00 +5.247820804176e+01
 2.20000000e+00 -5.490974171534e+00 +5.129448312670e+01 -2.088465285332e+00 -3.473576652317e+01 -2.088465285332e+00 -3.473576652317e+01 -5.491783176120e+00 +5.129879249644e+01
 2.30000000e+00 -5.208342984145e+00 +5.012648997786e+01 -2.219619347438e+00 -3.603932809740e+01 -2.219619347438e+00 -3.603932809740e+01 -5.209105190878e+00 +5.013078923177e+01
 2.40000000e+00 -4.943942696037e+00 +4.897156679189e+01 -2.354016714367e+00 -3.731788599547e+01 -2.354016714367e+00 -3.731788599547e+01 -4.944662556152e+00 +4.897583982842e+01
 2.50000000e+00 -4.696247243178e+00 +4.783098515386e+01 -2.491504706835e+00 -3.857167596982e+01 -2.491504706835e+00 -3.857167596982e+01 -4.696928788466e+00 +4.783521989771e+01
 2.60000000e+00 -4.463898738988e+00 +4.670572148493e+01 -2.631939654794e+00 -3.980097934350e+01 -2.631939654794e+00 -3.980097934350e+01 -4.464545616868e+00 +4.670990899406e+01
 2.70000000e+00 -4.245683412477e+00 +4.559651156524e+01 -2.775186973732e+00 -4.100611743890e+01 -2.775186973732e+00 -4.100611743890e+01 -4.246298924426e+00 +4.560064535209e+01
 2.80000000e+00 -4.040511813708e+00 +4.450389373148e+01 -2.921121180297e+00 -4.218744637940e+01 -2.921121180297e+00 -4.218744637940e+01 -4.041098952897e+00 +4.450796924858e+01
 2.90000000e+00 -3.847402402093e+00 +4.342824348204e+01 -3.069625857231e+00 -4.334535224722e+01 -3.069625857231e+00 -4.334535224722e+01 -3.847963888055e+00 +4.343225773178e+01
 3.00000000e+00 -3.665467838459e+00 +4.236980148392e+01 -3.220593575966e+00 -4.448024658412e+01 -3.220593575966e+00 -4.448024658412e+01 -3.666006147817e+00 +4.237375272092e+01
 3.10000000e+00 -3.493903454902e+00 +4.132869645338e+01 -3.373925784082e+00 -4.559256222403e+01 -3.373925784082e+00 -4.559256222403e+01 -3.494420847981e+00 +4.133258395511e+01
 3.20000000e+00 -3.331977491733e+00 +4.030496400859e+01 -3.529532664102e+00 -4.668274944751e+01 -3.529532664102e+00 -4.668274944751e+01 -3.332476035291e+00 +4.030878789587e+01
 3.30000000e+00 -3.179022778358e+00 +3.929856232213e+01 -3.687332969465e+00 -4.775127244789e+01 -3.687332969465e+00 -4.775127244789e+01 -3.179504364895e+00 +3.930232341622e+01
 3.40000000e+00 -3.034429602037e+00 +3.830938520456e+01 -3.847253843085e+00 -4.879860609868e+01 -3.847253843085e+00 -4.879860609868e+01 -3.034895966205e+00 +3.831308491096e+01
 3.50000000e+00 -2.897639560230e+00 +3.733727310460e+01 -4.009230623470e+00 -4.982523301072e+01 -4.009230623470e+00 -4.982523301072e+01 -2.898092292871e+00 +3.734091331667e+01
 3.60000000e+00 -2.768140232490e+00 +3.638202240383e+01 -4.173206642939e+00 -5.083164086649e+01 -4.173206642939e+00 -5.083164086649e+01 -2.768580792771e+00 +3.638560542123e+01
 3.70000000e+00 -2.645460539407e+00 +3.544339330269e+01 -4.339133022141e+00 -5.181832001806e+01 -4.339133022141e+00 -5.181832001806e+01 -2.645890265449e+00 +3.544692176142e+01
 3.80000000e+00 -2.529166680862e+00 +3.452111653361e+01 -4.506968464658e+00 -5.278576133426e+01 -4.506968464658e+00 -5.278576133426e+01 -2.529586799202e+00 +3.452459334524e+01
 3.90000000e+00 -2.418858565558e+00 +3.361489909035e+01 -4.676679055107e+00 -5.373445428189e+01 -4.676679055107e+00 -5.373445428189e+01 -2.419270199685e+00 +3.361832738875e+01
 4.00000000e+00 -2.314166659426e+00 +3.272442912650e+01 -4.848238063836e+00 -5.466488522536e+01 -4.848238063836e+00 -5.466488522536e+01 -2.314570837601e+00 +3.272781222110e+01
 4.10000000e+00 -2.214749193043e+00 +3.184938014854e+01 -5.021625760929e+00 -5.557753592886e+01 -5.021625760929e+00 -5.557753592886e+01 -2.215146855532e+00 +3.185272148331e+01
 4.20000000e+00 -2.120289678300e+00 +3.098941460663e+01 -5.196829241985e+00 -5.647288224528e+01 -5.196829241985e+00 -5.647288224528e+01 -2.120681684140e+00 +3.099271772413e+01
 4.30000000e+00 -2.030494692737e+00 +3.014418696922e+01 -5.373842267809e+00 -5.735139297620e+01 -5.373842267809e+00 -5.735139297620e+01 -2.030881826093e+00 +3.014745547930e+01
 4.40000000e+00 -1.945091896599e+00 +2.931334635335e+01 -5.552665119971e+00 -5.821352888748e+01 -5.552665119971e+00 -5.821352888748e+01 -1.945474872762e+00 +2.931658390620e+01
 4.50000000e+00 -1.863828253095e+00 +2.849653877173e+01 -5.733304473945e+00 -5.905974186589e+01 -5.733304473945e+00 -5.905974186589e+01 -1.864207724152e+00 +2.849974903484e+01
 4.60000000e+00 -1.786468426815e+00 +2.769340904821e+01 -5.915773291392e+00 -5.989047420224e+01 -5.915773291392e+00 -5.989047420224e+01 -1.786844987007e+00 +2.769659568694e+01
 4.70000000e+00 -1.712793338940e+00 +2.690360244586e+01 -6.100090733042e+00 -6.070615798782e+01 -6.100090733042e+00 -6.070615798782e+01 -1.713167529726e+00 +2.690676910742e+01
 4.80000000e+00 -1.642598860949e+00 +2.612676604566e+01 -6.286282093516e+00 -6.150721461090e+01 -6.286282093516e+00 -6.150721461090e+01 -1.642971175767e+00 +2.612991634605e+01
 4.90000000e+00 -1.575694631043e+00 +2.536254990856e+01 -6.474378759403e+00 -6.229405434161e+01 -6.474378759403e+00 -6.229405434161e+01 -1.576065519784e+00 +2.536568742228e+01
 5.00000000e+00 -1.511902979681e+00 +2.461060804915e+01 -6.664418191890e+00 -6.306707599347e+01 -6.664418191890e+00 -6.306707599347e+01 -1.512272852877e+00 +2.461373630142e+01
 5.10000000e+00 -1.451057952387e+00 +2.387059924567e+01 -6.856443935272e+00 -6.382666665121e+01 -6.856443935272e+00 -6.382666665121e+01 -1.451427185115e+00 +2.387372170677e+01
 5.20000000e+00 -1.393004419539e+00 +2.314218770772e+01 -7.050505652732e+00 -6.457320145473e+01 -7.050505652732e+00 -6.457320145473e+01 -1.393373355036e+00 +2.314530778930e+01
 5.30000000e+00 -1.337597264092e+00 +2.242504362025e+01 -7.246659190903e+00 -6.530704342995e+01 -7.246659190903e+00 -6.530704342995e+01 -1.337966217111e+00 +2.242816467330e+01
 5.40000000e+00 -1.284700639348e+00 +2.171884358032e+01 -7.444966674843e+00 -6.602854335775e+01 -7.444966674843e+00 -6.602854335775e+01 -1.285069899232e+00 +2.172196889459e+01
 5.50000000e+00 -1.234187289776e+00 +2.102327094070e+01 -7.645496635260e+00 -6.673803967287e+01 -7.645496635260e+00 -6.673803967287e+01 -1.234557123288e+00 +2.102640374535e+01
 5.60000000e+00 -1.185937928736e+00 +2.033801607293e+01 -7.848324170063e+00 -6.743585838480e+01 -7.848324170063e+00 -6.743585838480e+01 -1.186308582634e+00 +2.034115953821e+01
 5.70000000e+00 -1.139840667631e+00 +1.966277656073e+01 -8.053531142559e+00 -6.812231301332e+01 -8.053531142559e+00 -6.812231301332e+01 -1.140212371009e+00 +1.966593380044e+01
 5.80000000e+00 -1.095790491646e+00 +1.899725733326e+01 -8.261206418998e+00 -6.879770453157e+01 -8.261206418998e+00 -6.879770453157e+01 -1.096163458047e+00 +1.900043140798e+01
 5.90000000e+00 -1.053688777727e+00 +1.834117074680e+01 -8.471446148510e+00 -6.946232130947e+01 -8.471446148510e+00 -6.946232130947e+01 -1.054063207057e+00 +1.834436466759e+01
 6.00000000e+00 -1.013442850974e+00 +1.769423662206e+01 -8.684354088977e+00 -7.011643905072e+01 -8.684354088977e+00 -7.011643905072e+01 -1.013818931205e+00 +1.769745335459e+01
 6.10000000e+00 -9.749655759394e-01 +1.705618224366e+01 -8.900041982889e+00 -7.076032071639e+01 -8.900041982889e+00 -7.076032071639e+01 -9.753434846417e-01 +1.705942471261e+01
 6.20000000e+00 -9.381749797790e-01 +1.642674232736e+01 -9.118629987872e+00 -7.139421642787e+01 -9.118629987872e+00 -7.139421642787e+01 -9.385548854707e-01 +1.643001342104e+01
 6.30000000e+00 -9.029939044233e-01 +1.580565896014e+01 -9.340247167292e+00 -7.201836334188e+01 -9.340247167292e+00 -7.201836334188e+01 -9.033759677727e-01 +1.580896153515e+01
 6.40000000e+00 -8.693496852847e-01 +1.519268151720e+01 -9.565032047196e+00 -7.263298548947e+01 -9.565032047196e+00 -7.263298548947e+01 -8.697340601644e-01 +1.519601840323e+01
 6.50000000e+00 -8.371738542193e-01 +1.458756656001e+01 -9.793133246821e+00 -7.323829357061e+01 -9.793133246821e+00 -7.323829357061e+01 -8.375606886305e-01 +1.459094056450e+01
 6.60000000e+00 -8.064018646996e-01 +1.399007771839e+01 -1.002471019110e+01 -7.383448469486e+01 -1.002471019110e+01 -7.383448469487e+01 -8.067913015761e-01 +1.399349163122e+01
 6.70000000e+00 -7.769728373403e-01 +1.339998555970e+01 -1.025993391488e+01 -7.442174205757e+01 -1.025993391488e+01 -7.442174205757e+01 -7.773650152460e-01 +1.340344215772e+01
 6.80000000e+00 -7.488293240991e-01 +1.281706744768e+01 -1.049898797028e+01 -7.500023453964e+01 -1.049898797028e+01 -7.500023453964e+01 -7.492243778275e-01 +1.282056949908e+01
 6.90000000e+00 -7.219170896235e-01 +1.224110739295e+01 -1.074206945043e+01 -7.557011621723e+01 -1.074206945043e+01 -7.557011621723e+01 -7.223151507111e-01 +1.224465766153e+01
 7.00000000e+00 -6.961849083582e-01 +1.167189589724e+01 -1.098939014502e+01 -7.613152576516e+01 -1.098939014502e+01 -7.613152576516e+01 -6.965861055196e-01 +1.167549714642e+01
 7.10000000e+00 -6.715843761494e-01 +1.110922979292e+01 -1.124117784606e+01 -7.668458573554e+01 -1.124117784606e+01 -7.668458573554e+01 -6.719888356444e-01 +1.111288478961e+01
 7.20000000e+00 -6.480697351971e-01 +1.055291207923e+01 -1.149767782501e+01 -7.722940168915e+01 -1.149767782501e+01 -7.722940168915e+01 -6.484775811364e-01 +1.055662359750e+01
 7.30000000e+00 -6.255977113051e-01 +1.000275175654e+01 -1.175915450672e+01 -7.776606115326e+01 -1.175915450672e+01 -7.776606115326e+01 -6.260090659027e-01 +1.000652258103e+01
 7.40000000e+00 -6.041273624716e-01 +9.458563659518e+00 -1.202589337001e+01 -7.829463237383e+01 -1.202589337001e+01 -7.829463237383e+01 -6.045423462504e-01 +9.462396588715e+00
 7.50000000e+00 -5.836199379441e-01 +8.920168290280e+00 -1.229820311045e+01 -7.881516282359e+01 -1.229820311045e+01 -7.881516282359e+01 -5.840386699009e-01 +8.924066139544e+00
 7.60000000e+00 -5.640387469387e-01 +8.387391652192e+00 -1.257641810778e+01 -7.932767741896e+01 -1.257641810778e+01 -7.932767741896e+01 -5.644613446740e-01 +8.391357256605e+00
 7.70000000e+00 -5.453490362895e-01 +7.860065084977e+00 -1.286090124878e+01 -7.983217638807e+01 -1.286090124878e+01 -7.983217638807e+01 -5.457756161070e-01 +7.864101301990e+00
 7.80000000e+00 -5.275178763567e-01 +7.338025101696e+00 -1.315204716682e+01 -8.032863271889e+01 -1.315204716682e+01 -8.032863271889e+01 -5.279485533367e-01 +7.342134813603e+00
 7.90000000e+00 -5.105140545755e-01 +6.821113228056e+00 -1.345028597211e+01 -8.081698909894e+01 -1.345028597211e+01 -8.081698909895e+01 -5.109489426268e-01 +6.825299344285e+00
 8.00000000e+00 -4.943079760819e-01 +6.309175844405e+00 -1.375608756265e+01 -8.129715423643e+01 -1.375608756265e+01 -8.129715423643e+01 -4.947471879758e-01 +6.313441303646e+00
 8.10000000e+00 -4.788715708940e-01 +5.802064030736e+00 -1.406996662591e+01 -8.176899842370e+01 -1.406996662591e+01 -8.176899842370e+01 -4.793152182820e-01 +5.806411802915e+00
 8.20000000e+00 -4.641782071712e-01 +5.299633414950e+00 -1.439248846666e+01 -8.223234816720e+01 -1.439248846666e+01 -8.223234816720e+01 -4.646264005913e-01 +5.304066503049e+00
 8.30000000e+00 -4.502026101113e-01 +4.801744024558e+00 -1.472427582824e+01 -8.268697965932e+01 -1.472427582824e+01 -8.268697965932e+01 -4.506554589843e-01 +4.806265466312e+00
 8.40000000e+00 -4.369207860816e-01 +4.308260141991e+00 -1.506601691583e+01 -8.313261080308e+01 -1.506601691583e+01 -8.313261080308e+01 -4.373783986989e-01 +4.312873011447e+00
 8.50000000e+00 -4.243099516099e-01 +3.819050163620e+00 -1.541847488339e+01 -8.356889141518e+01 -1.541847488339e+01 -8.356889141518e+01 -4.247724351163e-01 +3.823757572586e+00
 8.60000000e+00 -4.123484668920e-01 +3.333986462562e+00 -1.578249911459e+01 -8.399539111676e+01 -1.578249911459e+01 -8.399539111677e+01 -4.128159272635e-01 +3.338791561952e+00
 8.70000000e+00 -4.010157734989e-01 +2.852945255328e+00 -1.615903871895e+01 -8.441158426450e+01 -1.615903871895e+01 -8.441158426450e+01 -4.014883155181e-01 +2.857851236404e+00
 8.80000000e+00 -3.902923359905e-01 +2.375806472330e+00 -1.654915878412e+01 -8.481683105775e+01 -1.654915878412e+01 -8.481683105776e+01 -3.907700632200e-01 +2.380816567861e+00
 8.90000000e+00 -3.801595871650e-01 +1.902453632249e+00 -1.695406008594e+01 -8.521035365641e+01 -1.695406008594e+01 -8.521035365642e+01 -3.806426019202e-01 +1.907571117594e+00
 9.00000000e+00 -3.705998766955e-01 +1.432773720259e+00 -1.737510317535e+01 -8.559120571906e+01 -1.737510317535e+01 -8.559120571906e+01 -3.710882800181e-01 +1.438001914370e+00
 9.10000000e+00 -3.615964229210e-01 +9.666570700518e-01 -1.781383805903e+01 -8.595823316387e+01 -1.781383805903e+01 -8.595823316387e+01 -3.620903145532e-01 +9.719993364266e-01
 9.20000000e+00 -3.531332675800e-01 +5.039972496466e-01 -1.827204110372e+01 -8.631002307361e+01 -1.827204110372e+01 -8.631002307362e+01 -3.536327459401e-01 +5.094569972188e-01
 9.30000000e+00 -3.451952332867e-01 +4.469095090750e-02 -1.875176137566e+01 -8.664483636685e+01 -1.875176137566e+01 -8.664483636685e+01 -3.457003954476e-01 +5.027163489188e-02
 9.40000000e+00 -3.377678835685e-01 -4.113621172850e-01 -1.925537945674e+01 -8.696051790828e+01 -1.925537945674e+01 -8.696051790828e+01 -3.382788252378e-01 -4.056569945878e-01
 9.50000000e+00 -3.308374852933e-01 -8.642593322833e-01 -1.978568298462e+01 -8.725437474836e+01 -1.978568298462e+01 -8.725437474836e+01 -3.313543007976e-01 -8.584262207162e-01
 9.60000000e+00 -3.243909733305e-01 -1.314095257419e+00 -2.034596494678e+01 -8.752300852110e+01 -2.034596494678e+01 -8.752300852110e+01 -3.249137556019e-01 -1.308130558226e+00
 9.70000000e+00 -3.184159172991e-01 -1.760961738327e+00 -2.094015344681e+01 -8.776208057046e+01 -2.094015344681e+01 -8.776208057047e+01 -3.189447578653e-01 -1.754861803435e+00
 9.80000000e+00 -3.129004902663e-01 -2.204947995938e+00 -2.157298580712e+01 -8.796597612487e+01 -2.157298580712e+01 -8.796597612488e+01 -3.134354792453e-01 -2.198709127251e+00
 9.90000000e+00 -3.078334392733e-01 -2.646140716219e+00 -2.225024642079e+01 -8.812731311829e+01 -2.225024642079e+01 -8.812731311829e+01 -3.083746653703e-01 -2.639759164930e+00
 1.00000000e+01 -3.032040575678e-01 -3.084624136758e+00 -2.297909839779e+01 -8.823620503083e+01 -2.297909839779e+01 -8.823620503083e+01 -3.037516080774e-01 -3.078096102663e+00
 1.01000000e+01 -2.990021584383e-01 -3.520480130279e+00 -2.376855684535e+01 -8.827912137034e+01 -2.376855684535e+01 -8.827912137034e+01 -2.995561192495e-01 -3.513801761101e+00
 1.02000000e+01 -2.952180505459e-01 -3.953788285187e+00 -2.463018244609e+01 -8.823706482407e+01 -2.463018244609e+01 -8.823706482407e+01 -2.957785061512e-01 -3.946955675889e+00
 1.03000000e+01 -2.918425146610e-01 -4.384625983221e+00 -2.557912949997e+01 -8.808253596376e+01 -2.557912949997e+01 -8.808253596377e+01 -2.924095481699e-01 -4.377635175323e+00
 1.04000000e+01 -2.888667817177e-01 -4.813068474316e+00 -2.663578702075e+01 -8.777423244446e+01 -2.663578702075e+01 -8.777423244447e+01 -2.894404748736e-01 -4.805915455197e+00
 1.05000000e+01 -2.862825121038e-01 -5.239188948762e+00 -2.782845789224e+01 -8.724724387392e+01 -2.782845789224e+01 -8.724724387393e+01 -2.868629453045e-01 -5.231869650953e+00
 1.06000000e+01 -2.840817761096e-01 -5.663058606740e+00 -2.919795190453e+01 -8.639358527485e+01 -2.919795190453e+01 -8.639358527486e+01 -2.846690284323e-01 -5.655568907199e+00
 1.07000000e+01 -2.822570354668e-01 -6.084746725340e+00 -3.080591888387e+01 -8.501994897155e+01 -3.080591888387e+01 -8.501994897156e+01 -2.828511846956e-01 -6.077082444712e+00
 1.08000000e+01 -2.808011259096e-01 -6.504320723127e+00 -3.275092786338e+01 -8.274481494690e+01 -3.275092786338e+01 -8.274481494692e+01 -2.814022485677e-01 -6.496477624977e+00
 1.09000000e+01 -2.797072406969e-01 -6.921846222351e+00 -3.520096078857e+01 -7.870635045312e+01 -3.520096078857e+01 -7.870635045313e+01 -2.803154120816e-01 -6.913820012377e+00
 1.10000000e+01 -2.789689150387e-01 -7.337387108879e+00 -3.845183270228e+01 -7.054453677160e+01 -3.845183270228e+01 -7.054453677162e+01 -2.795842092601e-01 -7.329173434096e+00
 1.11000000e+01 -2.785800113723e-01 -7.751005589929e+00 -4.281937840656e+01 -5.005128796830e+01 -4.281937840657e+01 -5.005128796833e+01 -2.792025013950e-01 -7.742600037823e+00
 1.12000000e+01 -2.785347054387e-01 -8.162762249687e+00 -4.537571200839e+01 +1.517753994073e+00 -4.537571200840e+01 +1.517753994088e+00 -2.791644631270e-01 -8.154160347338e+00
 1.13000000e+01 -2.788274731115e-01 -8.572716102876e+00 -4.142921685477e+01 +4.297991951246e+01 -4.142921685477e+01 +4.297991951248e+01 -2.794645692775e-01 -8.563913316045e+00
 1.14000000e+01 -2.794530779361e-01 -8.980924646352e+00 -3.744677055718e+01 +5.801296839383e+01 -3.744677055719e+01 +5.801296839386e+01 -2.800975823906e-01 -8.971916378532e+00
 1.15000000e+01 -2.804065593359e-01 -9.387443908809e+00 -3.453286618535e+01 +6.447276681644e+01 -3.453286618535e+01 +6.447276681646e+01 -2.810585409423e-01 -9.378225500239e+00
 1.16000000e+01 -2.816832214493e-01 -9.792328498644e+00 -3.231142289182e+01 +6.783579606324e+01 -3.231142289182e+01 +6.783579606326e+01 -2.823427481807e-01 -9.782895225275e+00
 1.17000000e+01 -2.832786225611e-01 -1.019563165006e+01 -3.053291936775e+01 +6.979061166586e+01 -3.053291936775e+01 +6.979061166587e+01 -2.839457615586e-01 -1.018597872249e+01
 1.18000000e+01 -2.851885650932e-01 -1.059740526748e+01 -2.905573957174e+01 +7.099632390982e+01 -2.905573957174e+01 +7.099632390983e+01 -2.858633827282e-01 -1.058752782982e+01
 1.19000000e+01 -2.874090861249e-01 -1.099769996829e+01 -2.779514517222e+01 +7.175865048152e+01 -2.779514517222e+01 +7.175865048153e+01 -2.880916480632e-01 -1.098759309703e+01
 1.20000000e+01 -2.899364484134e-01 -1.139656512406e+01 -2.669714736674e+01 +7.223774519226e+01 -2.669714736674e+01 +7.223774519227e+01 -2.906268196811e-01 -1.138622382682e+01
 1.21000000e+01 -2.927671318848e-01 -1.179404890020e+01 -2.572545695725e+01 +7.252532298924e+01 -2.572545695725e+01 +7.252532298924e+01 -2.934653769367e-01 -1.178346811448e+01
 1.22000000e+01 -2.958978255720e-01 -1.219019829413e+01 -2.485459184256e+01 +7.267758420214e+01 -2.485459184256e+01 +7.267758420214e+01 -2.966040083624e-01 -1.217937288600e+01
 1.23000000e+01 -2.993254199736e-01 -1.258505917217e+01 -2.406600815976e+01 +7.273084336221e+01 -2.406600815976e+01 +7.273084336222e+01 -3.000396040280e-01 -1.257398393486e+01
 1.24000000e+01 -3.030469998120e-01 -1.297867630485e+01 -2.334580742964e+01 +7.270958808661e+01 -2.334580742964e+01 +7.270958808661e+01 -3.037692483015e-01 -1.296734595738e+01
 1.25000000e+01 -3.070598371684e-01 -1.337109340117e+01 -2.268331292474e+01 +7.263091908821e+01 -2.268331292474e+01 +7.263091908821e+01 -3.077902129850e-01 -1.335950258678e+01
 1.26000000e+01 -3.113613849755e-01 -1.376235314136e+01 -2.207014993455e+01 +7.250713253769e+01 -2.207014993455e+01 +7.250713253769e+01 -3.120999508089e-01 -1.375049642603e+01
 1.27000000e+01 -3.159492708474e-01 -1.415249720861e+01 -2.149963103239e+01 +7.234729131473e+01 -2.149963103239e+01 +7.234729131473e+01 -3.166960892639e-01 -1.414036907941e+01
 1.28000000e+01 -3.208212912313e-01 -1.454156631952e+01 -2.096633298415e+01 +7.215821823457e+01 -2.096633298415e+01 +7.215821823457e+01 -3.215764247532e-01 -1.452916118293e+01
 1.29000000e+01 -3.259754058622e-01 -1.492960025348e+01 -2.046579804752e+01 +7.194514476166e+01 -2.046579804752e+01 +7.194514476166e+01 -3.267389170483e-01 -1.491691243364e+01
 1.30000000e+01 -3.314097325057e-01 -1.531663788092e+01 -1.999431833692e+01 +7.171214688591e+01 -1.999431833692e+01 +7.171214688591e+01 -3.321816840328e-01 -1.530366161783e+01
 1.31000000e+01 -3.371225419742e-01 -1.570271719056e+01 -1.954877706354e+01 +7.146244534186e+01 -1.954877706354e+01 +7.146244534186e+01 -3.379029967199e-01 -1.568944663816e+01
 1.32000000e+01 -3.431122534027e-01 -1.608787531559e+01 -1.912652959033e+01 +7.119861696298e+01 -1.912652959033e+01 +7.119861696298e+01 -3.439012745277e-01 -1.607430453985e+01
 1.33000000e+01 -3.493774297701e-01 -1.647214855899e+01 -1.872531291557e+01 +7.092274639521e+01 -1.872531291557e+01 +7.092274639522e+01 -3.501750808023e-01 -1.645827153581e+01
 1.34000000e+01 -3.559167736556e-01 -1.685557241775e+01 -1.834317581784e+01 +7.063653690967e+01 -1.834317581784e+01 +7.063653690967e+01 -3.567231185733e-01 -1.684138303089e+01
 1.35000000e+01 -3.627291232163e-01 -1.723818160633e+01 -1.797842425897e+01 +7.034139261732e+01 -1.797842425897e+01 +7.034139261732e+01 -3.635442265325e-01 -1.722367364521e+01
 1.36000000e+01 -3.698134483769e-01 -1.762001007916e+01 -1.762957821895e+01 +7.003848033572e+01 -1.762957821895e+01 +7.003848033572e+01 -3.706373752231e-01 -1.760517723656e+01
 1.37000000e+01 -3.771688472205e-01 -1.800109105235e+01 -1.729533720970e+01 +6.972877674665e+01 -1.729533720970e+01 +6.972877674665e+01 -3.780016634302e-01 -1.798592692208e+01
 1.38000000e+01 -3.847945425702e-01 -1.838145702458e+01 -1.697455245705e+01 +6.941310476641e+01 -1.697455245705e+01 +6.941310476641e+01 -3.856363147624e-01 -1.836595509898e+01
 1.39000000e+01 -3.926898787536e-01 -1.876113979713e+01 -1.666620426329e+01 +6.909216189999e+01 -1.666620426329e+01 +6.909216190000e+01 -3.935406744154e-01 -1.874529346460e+01
 1.40000000e+01 -4.008543185401e-01 -1.914017049328e+01 -1.636938343512e+01 +6.876654256572e+01 -1.636938343512e+01 +6.876654256572e+01 -4.017142061091e-01 -1.912397303561e+01
