#  GHZ S DB R 50.0
 1.00000000e-02 -2.696787047754e+01 +3.245235249709e+00 -3.977939798858e-01 -1.831487333353e-01 -3.977939798858e-01 -1.831487333283e-01 -2.696786090797e+01 +3.245705505140e+00
 2.00000000e-02 -2.692350388442e+01 +6.467151330196e+00 -3.980050858616e-01 -3.662266027690e-01 -3.980050858617e-01 -3.662266027655e-01 -2.692346473004e+01 +6.468059254047e+00
 1.00000000e-01 -2.569726769220e+01 +2.933045001173e+01 -4.044727017117e-01 -1.826638952880e+00 -4.044727017118e-01 -1.826638952879e+00 -2.569661408105e+01 +2.933163540727e+01
 2.00000000e-01 -2.318394807561e+01 +4.747312090460e+01 -4.233922224239e-01 -3.630771105980e+00 -4.233922224240e-01 -3.630771105979e+00 -2.318299711516e+01 +4.746818719538e+01
 3.00000000e-01 -2.075045043076e+01 +5.705490804752e+01 -4.518827446995e-01 -5.402405931575e+00 -4.518827446996e-01 -5.402405931575e+00 -2.075001645618e+01 +5.704484344966e+01
 4.00000000e-01 -1.867681063147e+01 +6.206300885371e+01 -4.878069147682e-01 -7.142778434168e+00 -4.878069147682e-01 -7.142778434168e+00 -1.867711279907e+01 +6.205110020715e+01
 5.00000000e-01 -1.693900464840e+01 +6.463221048600e+01 -5.300768474229e-01 -8.856847733970e+00 -5.300768474229e-01 -8.856847733970e+00 -1.693994483379e+01 +6.462077277927e+01
 6.00000000e-01 -1.547069045560e+01 +6.582415123710e+01 -5.783165479821e-01 -1.054859742410e+01 -5.783165479821e-01 -1.054859742410e+01 -1.547208893214e+01 +6.581435091579e+01
 7.00000000e-01 -1.421353035883e+01 +6.619262829800e+01 -6.324431466972e-01 -1.222001460878e+01 -6.324431466972e-01 -1.222001460878e+01 -1.421521865617e+01 +6.618488445046e+01
 8.00000000e-01 -1.312293072584e+01 +6.604434842077e+01 -6.924334040418e-01 -1.387155707338e+01 -6.924334040419e-01 -1.387155707338e+01 -1.312477657666e+01 +6.603867298554e+01
 9.00000000e-01 -1.216573999569e+01 +6.555893917992e+01 -7.582345562677e-01 -1.550280395773e+01 -7.582345562678e-01 -1.550280395773e+01 -1.216764779899e+01 +6.555514766122e+01
 1.00000000e+00 -1.131723505564e+01 +6.484699416175e+01 -8.297440600413e-01 -1.711292363835e+01 -8.297440600413e-01 -1.711292363835e+01 -1.131913942717e+01 +6.484482347397e+01
 1.10000000e+00 -1.055872478714e+01 +6.397966464678e+01 -9.068144411606e-01 -1.870095007810e+01 -9.068144411606e-01 -1.870095007810e+01 -1.056058331623e+01 +6.397883556899e+01
 1.20000000e+00 -9.875835942555e+00 +6.300450810047e+01 -9.892644684300e-01 -2.026593052545e+01 -9.892644684301e-01 -2.026593052545e+01 -9.877622959269e+00 +6.300475656517e+01
 1.30000000e+00 -9.257321056398e+00 +6.195437130446e+01 -1.076890021454e+00 -2.180699825790e+01 -1.076890021454e+00 -2.180699825790e+01 -9.259022730240e+00 +6.195546251879e+01
 1.40000000e+00 -8.694230698021e+00 +6.085258184186e+01 -1.169472883520e+00 -2.332340435496e+01 -1.169472883520e+00 -2.332340435496e+01 -8.695841336601e+00 +6.085431508094e+01
 1.50000000e+00 -8.179333347907e+00 +5.971610019267e+01 -1.266787376808e+00 -2.481452789810e+01 -1.266787376808e+00 -2.481452789810e+01 -8.180852664005e+00 +5.971830863896e+01
 1.60000000e+00 -7.706703141294e+00 +5.855750115363e+01 -1.368605224714e+00 -2.627987518984e+01 -1.368605224714e+00 -2.627987518984e+01 -7.708134267983e+00 +5.856004923451e+01
 1.70000000e+00 -7.271422306576e+00 +5.738625906490e+01 -1.474699074714e+00 -2.771907364953e+01 -1.474699074714e+00 -2.771907364953e+01 -7.272770379234e+00 +5.738903866940e+01
 1.80000000e+00 -6.869362958889e+00 +5.620960535471e+01 -1.584845043784e+00 -2.913186336020e+01 -1.584845043784e+00 -2.913186336020e+01 -6.870634122815e+00 +5.621253170650e+01
 1.90000000e+00 -6.497024603837e+00 +5.503311544542e+01 -1.698824559517e+00 -3.051808779978e+01 -1.698824559517e+00 -3.051808779978e+01 -6.498225339523e+00 +5.503612306427e+01
 2.00000000e+00 -6.151411349565e+00 +5.386111972030e+01 -1.816425693817e+00 -3.187768452166e+01 -1.816425693817e+00 -3.187768452166e+01 -6.152548033485e+00 +5.386415870372e+01
 2.10000000e+00 -5.829937849383e+00 +5.269699728979e+01 -1.937444127973e+00 -3.321067614467e+01 -1.937444127973e+00 -3.321067614467e+01 -5.831016487642e+00 +5.270003002907e+01
 2.20000000e+00 -5.530356333709e+00 +5.154338994726e+01 -2.061683845870e+00 -3.451716180375e+01 -2.061683845870e+00 -3.451716180375e+01 -5.531382420494e+00 +5.154638832134e+01
 2.30000000e+00 -5.250699334324e+00 +5.040236068447e+01 -2.188957622615e+00 -3.579730910905e+01 -2.188957622615e+00 -3.579730910905e+01 -5.251677798095e+00 +5.040530373193e+01
 2.40000000e+00 -4.989234234147e+00 +4.927551299519e+01 -2.319087355533e+00 -3.705134661424e+01 -2.319087355533e+00 -3.705134661424e+01 -4.990169442986e+00 +4.927838503850e+01
 2.50000000e+00 -4.744426834163e+00 +4.816408198537e+01 -2.451904270744e+00 -3.827955677620e+01 -2.451904270744e+00 -3.827955677620e+01 -4.745322638317e+00 +4.816687116527e+01
 2.60000000e+00 -4.514911871401e+00 +4.706900490291e+01 -2.587249029341e+00 -3.948226938377e+01 -2.587249029341e+00 -3.948226938377e+01 -4.515771666419e+00 +4.707170207182e+01
 2.70000000e+00 -4.299468949665e+00 +4.599097643038e+01 -2.724971751135e+00 -4.065985543469e+01 -2.724971751135e+00 -4.065985543469e+01 -4.300295747866e+00 +4.599357434976e+01
 2.80000000e+00 -4.097002724924e+00 +4.493049254577e+01 -2.864931969966e+00 -4.181272144268e+01 -2.864931969966e+00 -4.181272144268e+01 -4.097799226527e+00 +4.493298533171e+01
 2.90000000e+00 -3.906526464486e+00 +4.388788569597e+01 -3.006998531930e+00 -4.294130415953e+01 -3.006998531930e+00 -4.294130415953e+01 -3.907295122677e+00 +4.389026846012e+01
 3.00000000e+00 -3.727148303634e+00 +4.286335328791e+01 -3.151049446150e+00 -4.404606569884e+01 -3.151049446150e+00 -4.404606569883e+01 -3.727891380187e+00 +4.286562192510e+01
 3.10000000e+00 -3.558059675855e+00 +4.185698097819e+01 -3.296971696453e+00 -4.512748904860e+01 -3.296971696453e+00 -4.512748904860e+01 -3.558779285790e+00 +4.185913205834e+01
 3.20000000e+00 -3.398525507606e+00 +4.086876186777e+01 -3.444661021381e+00 -4.618607395993e+01 -3.444661021381e+00 -4.618607395993e+01 -3.399223652721e+00 +4.087079259634e+01
 3.30000000e+00 -3.247875855751e+00 +3.989861243697e+01 -3.594021669226e+00 -4.722233319806e+01 -3.594021669226e+00 -4.722233319806e+01 -3.248554447835e+00 +3.990052065535e+01
 3.40000000e+00 -3.105498732617e+00 +3.894638585873e+01 -3.744966134072e+00 -4.823678914099e+01 -3.744966134072e+00 -4.823678914099e+01 -3.106159607743e+00 +3.894817006268e+01
 3.50000000e+00 -2.970833915170e+00 +3.801188318179e+01 -3.897414878263e+00 -4.922997070983e+01 -3.897414878263e+00 -4.922997070983e+01 -2.971478840769e+00 +3.801354254235e+01
 3.60000000e+00 -2.843367574877e+00 +3.709486276747e+01 -4.051296046098e+00 -5.020241061367e+01 -4.051296046098e+00 -5.020241061367e+01 -2.843998251373e+00 +3.709639714415e+01
 3.70000000e+00 -2.722627596189e+00 +3.619504828211e+01 -4.206545173023e+00 -5.115464289127e+01 -4.206545173023e+00 -5.115464289127e+01 -2.723245654894e+00 +3.619645822243e+01
 3.80000000e+00 -2.608179476263e+00 +3.531213548563e+01 -4.363104894066e+00 -5.208720073083e+01 -4.363104894066e+00 -5.208720073083e+01 -2.608786475015e+00 +3.531342220876e+01
 3.90000000e+00 -2.499622718079e+00 +3.444579800975e+01 -4.520924654776e+00 -5.300061454912e+01 -4.520924654776e+00 -5.300061454912e+01 -2.500220135884e+00 +3.444696337432e+01
 4.00000000e+00 -2.396587644711e+00 +3.359569228281e+01 -4.679960427453e+00 -5.389541031092e+01 -4.679960427453e+00 -5.389541031092e+01 -2.397176876341e+00 +3.359673874063e+01
 4.10000000e+00 -2.298732574942e+00 +3.276146172998e+01 -4.840174435055e+00 -5.477210806997e+01 -4.840174435055e+00 -5.477210806997e+01 -2.299314926205e+00 +3.276239226849e+01
 4.20000000e+00 -2.205741310496e+00 +3.194274035527e+01 -5.001534884771e+00 -5.563122071313e+01 -5.001534884771e+00 -5.563122071313e+01 -2.206317994639e+00 +3.194355843193e+01
 4.30000000e+00 -2.117320893257e+00 +3.113915579418e+01 -5.164015712922e+00 -5.647325288975e+01 -5.164015712922e+00 -5.647325288975e+01 -2.117893028764e+00 +3.113986526598e+01
 4.40000000e+00 -2.033199597479e+00 +3.035033191137e+01 -5.327596342526e+00 -5.729870010932e+01 -5.327596342526e+00 -5.729870010932e+01 -2.033768207349e+00 +3.035093696261e+01
 4.50000000e+00 -1.953125127382e+00 +2.957589100651e+01 -5.492261454610e+00 -5.810804799089e+01 -5.492261454610e+00 -5.810804799089e+01 -1.953691139881e+00 +2.957639607727e+01
 4.60000000e+00 -1.876862995000e+00 +2.881545568176e+01 -5.658000774124e+00 -5.890177164892e+01 -5.658000774124e+00 -5.890177164892e+01 -1.877427245756e+00 +2.881586539943e+01
 4.70000000e+00 -1.804195056794e+00 +2.806865041686e+01 -5.824808871105e+00 -5.968033520110e+01 -5.824808871105e+00 -5.968033520110e+01 -1.804758292070e+00 +2.806896953216e+01
 4.80000000e+00 -1.734918190612e+00 +2.733510289100e+01 -5.992684977580e+00 -6.044419138454e+01 -5.992684977580e+00 -6.044419138454e+01 -1.735481071562e+00 +2.733533621978e+01
 4.90000000e+00 -1.668843097113e+00 +2.661444508559e+01 -6.161632820557e+00 -6.119378126783e+01 -6.161632820557e+00 -6.119378126783e+01 -1.669406204799e+00 +2.661459745712e+01
 5.00000000e+00 -1.605793211906e+00 +2.590631419707e+01 -6.331660471364e+00 -6.192953404745e+01 -6.331660471364e+00 -6.192953404745e+01 -1.606357052884e+00 +2.590639040909e+01
 5.10000000e+00 -1.545603716465e+00 +2.521035338537e+01 -6.502780211493e+00 -6.265186691775e+01 -6.502780211493e+00 -6.265186691775e+01 -1.546168728738e+00 +2.521035816611e+01
 5.20000000e+00 -1.488120637383e+00 +2.452621238004e+01 -6.675008415054e+00 -6.336118500490e+01 -6.675008415054e+00 -6.336118500490e+01 -1.488687196545e+00 +2.452615035689e+01
 5.30000000e+00 -1.433200024842e+00 +2.385354796334e+01 -6.848365447930e+00 -6.405788135589e+01 -6.848365447930e+00 -6.405788135589e+01 -1.433768450272e+00 +2.385342363792e+01
 5.40000000e+00 -1.380707202262e+00 +2.319202434703e+01 -7.022875583664e+00 -6.474233697456e+01 -7.022875583664e+00 -6.474233697456e+01 -1.381277763240e+00 +2.319184207615e+01
 5.50000000e+00 -1.330516080060e+00 +2.254131345762e+01 -7.198566936160e+00 -6.541492089732e+01 -7.198566936160e+00 -6.541492089732e+01 -1.331089001698e+00 +2.254107743957e+01
 5.60000000e+00 -1.282508527249e+00 +2.190109514268e+01 -7.375471409258e+00 -6.607599030208e+01 -7.375471409258e+00 -6.607599030208e+01 -1.283083996175e+00 +2.190080940828e+01
 5.70000000e+00 -1.236573795335e+00 +2.127105730953e+01 -7.553624663297e+00 -6.672589064441e+01 -7.553624663297e+00 -6.672589064441e+01 -1.237151965046e+00 +2.127072571741e+01
 5.80000000e+00 -1.192607989550e+00 +2.065089600602e+01 -7.733066098824e+00 -6.736495581565e+01 -7.733066098824e+00 -6.736495581565e+01 -1.193188985424e+00 +2.065052224140e+01
 5.90000000e+00 -1.150513583041e+00 +2.004031545189e+01 -7.913838857665e+00 -6.799350831809e+01 -7.913838857665e+00 -6.799350831809e+01 -1.151097506954e+00 +2.003990302845e+01
 6.00000000e+00 -1.110198970052e+00 +1.943902802815e+01 -8.095989841653e+00 -6.861185945316e+01 -8.095989841653e+00 -6.861185945316e+01 -1.110785904608e+00 +1.943858029241e+01
 6.10000000e+00 -1.071578054589e+00 +1.884675423102e+01 -8.279569749401e+00 -6.922030951847e+01 -8.279569749401e+00 -6.922030951847e+01 -1.072168066954e+00 +1.884627436876e+01
 6.20000000e+00 -1.034569871393e+00 +1.826322259603e+01 -8.464633131587e+00 -6.981914801050e+01 -8.464633131587e+00 -6.981914801050e+01 -1.035163016733e+00 +1.826271364029e+01
 6.30000000e+00 -9.990982363711e-01 +1.768816959726e+01 -8.651238465380e+00 -7.040865382957e+01 -8.651238465380e+00 -7.040865382957e+01 -9.996945609190e-01 +1.768763443760e+01
 6.40000000e+00 -9.650914239342e-01 +1.712133952594e+01 -8.839448248716e+00 -7.098909548446e+01 -8.839448248716e+00 -7.098909548446e+01 -9.656909676884e-01 +1.712078091861e+01
 6.50000000e+00 -9.324818689067e-01 +1.656248435220e+01 -9.029329115317e+00 -7.156073129380e+01 -9.029329115317e+00 -7.156073129380e+01 -9.330846679927e-01 +1.656190493089e+01
 6.60000000e+00 -9.012058909319e-01 +1.601136357319e+01 -9.220951971504e+00 -7.212380958207e+01 -9.220951971504e+00 -7.212380958207e+01 -9.018119796444e-01 +1.601076586018e+01
 6.70000000e+00 -8.712034394753e-01 +1.546774405035e+01 -9.414392156029e+00 -7.267856886767e+01 -9.414392156029e+00 -7.267856886767e+01 -8.718128520237e-01 +1.546713046779e+01
 6.80000000e+00 -8.424178577080e-01 +1.493139983831e+01 -9.609729624386e+00 -7.322523804112e+01 -9.609729624386e+00 -7.322523804112e+01 -8.430306296919e-01 +1.493077271951e+01
 6.90000000e+00 -8.147956637168e-01 +1.440211200739e+01 -9.807049159269e+00 -7.376403653114e+01 -9.807049159269e+00 -7.376403653114e+01 -8.154118333535e-01 +1.440147360792e+01
 7.00000000e+00 -7.882863476253e-01 +1.387966846166e+01 -1.000644060913e+01 -7.429517445654e+01 -1.000644060913e+01 -7.429517445654e+01 -7.889059567537e-01 +1.387902097024e+01
 7.10000000e+00 -7.628421833411e-01 +1.336386375399e+01 -1.020799915711e+01 -7.481885276185e+01 -1.020799915711e+01 -7.481885276185e+01 -7.634652782236e-01 +1.336320930294e+01
 7.20000000e+00 -7.384180537561e-01 +1.285449889945e+01 -1.041182562286e+01 -7.533526333451e+01 -1.041182562286e+01 -7.533526333451e+01 -7.390446857019e-01 +1.285383957476e+01
 7.30000000e+00 -7.149712883355e-01 +1.235138118817e+01 -1.061802680035e+01 -7.584458910122e+01 -1.061802680035e+01 -7.584458910122e+01 -7.156015141632e-01 +1.235071903912e+01
 7.40000000e+00 -6.924615121192e-01 +1.185432399869e+01 -1.082671583499e+01 -7.634700410113e+01 -1.082671583499e+01 -7.634700410113e+01 -6.930953944794e-01 +1.185366104685e+01
 7.50000000e+00 -6.708505052480e-01 +1.136314661244e+01 -1.103801264407e+01 -7.684267353295e+01 -1.103801264407e+01 -7.684267353295e+01 -6.714881128227e-01 +1.136248486024e+01
 7.60000000e+00 -6.501020722016e-01 +1.087767403025e+01 -1.125204438496e+01 -7.733175377315e+01 -1.125204438496e+01 -7.733175377315e+01 -6.507434797964e-01 +1.087701546893e+01
 7.70000000e+00 -6.301819200039e-01 +1.039773679127e+01 -1.146894597637e+01 -7.781439236170e+01 -1.146894597637e+01 -7.781439236169e+01 -6.308272085485e-01 +1.039708340829e+01
 7.80000000e+00 -6.110575447162e-01 +9.923170794905e+00 -1.168886067860e+01 -7.829072795147e+01 -1.168886067860e+01 -7.829072795147e+01 -6.117068011860e-01 +9.922524580797e+00
 7.90000000e+00 -5.926981255931e-01 +9.453817125961e+00 -1.191194073970e+01 -7.876089021692e+01 -1.191194073970e+01 -7.876089021692e+01 -5.933514428647e-01 +9.453180080659e+00
 8.00000000e+00 -5.750744263292e-01 +8.989521883578e+00 -1.213834811548e+01 -7.922499971668e+01 -1.213834811548e+01 -7.922499971668e+01 -5.757319029804e-01 +8.988896022188e+00
 8.10000000e+00 -5.581587028717e-01 +8.530136013943e+00 -1.236825527261e+01 -7.968316770416e+01 -1.236825527261e+01 -7.968316770416e+01 -5.588204429360e-01 +8.529523372023e+00
 8.20000000e+00 -5.419246173153e-01 +8.075515147112e+00 -1.260184608553e+01 -8.013549587886e+01 -1.260184608553e+01 -8.013549587886e+01 -5.425907299999e-01 +8.074917785451e+00
 8.30000000e+00 -5.263471574369e-01 +7.625519438035e+00 -1.283931683949e+01 -8.058207607005e+01 -1.283931683949e+01 -8.058207607005e+01 -5.270177568120e-01 +7.624939446966e+00
 8.40000000e+00 -5.114025614614e-01 +7.180013411889e+00 -1.308087735429e+01 -8.102298984274e+01 -1.308087735429e+01 -8.102298984274e+01 -5.120777661273e-01 +7.179452915162e+00
 8.50000000e+00 -4.970682476818e-01 +6.738865813787e+00 -1.332675224561e+01 -8.145830801408e+01 -1.332675224561e+01 -8.145830801408e+01 -4.977481804212e-01 +6.738326972016e+00
 8.60000000e+00 -4.833227485898e-01 +6.301949462887e+00 -1.357718234373e+01 -8.188809006565e+01 -1.357718234373e+01 -8.188809006565e+01 -4.840075360087e-01 +6.301434476608e+00
 8.70000000e+00 -4.701456491952e-01 +5.869141110914e+00 -1.383242629302e+01 -8.231238343470e+01 -1.383242629302e+01 -8.231238343470e+01 -4.708354213595e-01 +5.868652223277e+00
 8.80000000e+00 -4.575175292412e-01 +5.440321305084e+00 -1.409276235966e+01 -8.273122266317e+01 -1.409276235966e+01 -8.273122266317e+01 -4.582124193107e-01 +5.439860804195e+00
 8.90000000e+00 -4.454199090437e-01 +5.015374255381e+00 -1.435849048041e+01 -8.314462837942e+01 -1.435849048041e+01 -8.314462837942e+01 -4.461200529085e-01 +5.014944476337e+00
 9.00000000e+00 -4.338351987019e-01 +4.594187706160e+00 -1.462993459105e+01 -8.355260608156e+01 -1.462993459105e+01 -8.355260608156e+01 -4.345407346240e-01 +4.593791032778e+00
 9.10000000e+00 -4.227466504512e-01 +4.176652811985e+00 -1.490744528119e+01 -8.395514468465e+01 -1.490744528119e+01 -8.395514468465e+01 -4.234577187129e-01 +4.176291678273e+00
 9.20000000e+00 -4.121383139404e-01 +3.762664017662e+00 -1.519140283090e+01 -8.435221478473e+01 -1.519140283090e+01 -8.435221478473e+01 -4.128550565033e-01 +3.762340909035e+00
 9.30000000e+00 -4.019949942375e-01 +3.352118942352e+00 -1.548222069668e+01 -8.474376658200e+01 -1.548222069668e+01 -8.474376658200e+01 -4.027175544119e-01 +3.351836396625e+00
 9.40000000e+00 -3.923022123785e-01 +2.944918267698e+00 -1.578034952813e+01 -8.512972739053e+01 -1.578034952813e+01 -8.512972739053e+01 -3.930307345059e-01 +2.944678875874e+00
 9.50000000e+00 -3.830461682893e-01 +2.540965629862e+00 -1.608628181479e+01 -8.550999864390e+01 -1.608628181479e+01 -8.550999864390e+01 -3.837807974394e-01 +2.540772036735e+00
 9.60000000e+00 -3.742137059238e-01 +2.140167515374e+00 -1.640055728500e+01 -8.588445228198e+01 -1.640055728500e+01 -8.588445228197e+01 -3.749545876052e-01 +2.140022419960e+00
 9.70000000e+00 -3.657922804702e-01 +1.742433160684e+00 -1.672376920708e+01 -8.625292637298e+01 -1.672376920708e+01 -8.625292637298e+01 -3.665395603578e-01 +1.742339316510e+00
 9.80000000e+00 -3.577699274914e-01 +1.347674455325e+00 -1.705657177954e+01 -8.661521978384e+01 -1.705657177954e+01 -8.661521978383e+01 -3.585237511687e-01 +1.347634670582e+00
 9.90000000e+00 -3.501352338724e-01 +9.558058485751e-01 -1.739968884347e+01 -8.697108565722e+01 -1.739968884347e+01 -8.697108565722e+01 -3.508957465909e-01 +9.558229861500e-01
 1.00000000e+01 -3.428773104580e-01 +5.667442595031e-01 -1.775392421110e+01 -8.732022338076e+01 -1.775392421110e+01 -8.732022338076e+01 -3.436446569128e-01 +5.668212369102e-01
 1.01000000e+01 -3.359857662725e-01 +1.804089903072e-01 -1.812017398326e+01 -8.766226863465e+01 -1.812017398326e+01 -8.766226863465e+01 -3.367600903939e-01 +1.805487795293e-01
 1.02000000e+01 -3.294506842192e-01 -2.032783571727e-01 -1.849944133310e+01 -8.799678096865e+01 -1.849944133310e+01 -8.799678096865e+01 -3.302321289815e-01 -2.030727299218e-01
 1.03000000e+01 -3.232625981675e-01 -5.843939618686e-01 -1.889285437248e+01 -8.832322817214e+01 -1.889285437248e+01 -8.832322817214e+01 -3.240513054134e-01 -5.841194164472e-01
 1.04000000e+01 -3.174124713380e-01 -9.630118609285e-01 -1.930168790485e+01 -8.864096643842e+01 -1.930168790485e+01 -8.864096643841e+01 -3.182085816194e-01 -9.626652636263e-01
 1.05000000e+01 -3.118916759061e-01 -1.339204024295e+00 -1.972739012406e+01 -8.894921495178e+01 -1.972739012406e+01 -8.894921495177e+01 -3.126953283408e-01 -1.338782188238e+00
 1.06000000e+01 -3.066919737475e-01 -1.713040426517e+00 -2.017161567117e+01 -8.924702298993e+01 -2.017161567117e+01 -8.924702298993e+01 -3.075033058908e-01 -1.712540112107e+00
 1.07000000e+01 -3.018054982552e-01 -2.084589115896e+00 -2.063626695455e+01 -8.953322684963e+01 -2.063626695455e+01 -8.953322684962e+01 -3.026246459866e-01 -2.084007031282e+00
 1.08000000e+01 -2.972247371614e-01 -2.453916281055e+00 -2.112354633932e+01 -8.980639273712e+01 -2.112354633932e+01 -8.980639273712e+01 -2.980518345863e-01 -2.453249082624e+00
 1.09000000e+01 -2.929425163046e-01 -2.821086315041e+00 -2.163602282253e+01 -9.006473999748e+01 -2.163602282253e+01 -9.006473999748e+01 -2.937776956699e-01 -2.820330607918e+00
 1.10000000e+01 -2.889519842830e-01 -3.186161877028e+00 -2.217671829493e+01 -9.030603632404e+01 -2.217671829493e+01 -9.030603632403e+01 -2.897953759064e-01 -3.185314215589e+00
 1.11000000e+01 -2.852465979422e-01 -3.549203951733e+00 -2.274922071243e+01 -9.052745226708e+01 -2.274922071243e+01 -9.052745226708e+01 -2.860983301547e-01 -3.548260840116e+00
 1.12000000e+01 -2.818201086464e-01 -3.910271906616e+00 -2.335783490079e+01 -9.072535535367e+01 -2.335783490079e+01 -9.072535535367e+01 -2.826803077475e-01 -3.909229799226e+00
 1.13000000e+01 -2.786665492866e-01 -4.269423546950e+00 -2.400778704525e+01 -9.089501244733e+01 -2.400778704525e+01 -9.089501244732e+01 -2.795353395122e-01 -4.268278848955e+00
 1.14000000e+01 -2.757802219831e-01 -4.626715168845e+00 -2.470550749357e+01 -9.103014887780e+01 -2.470550749357e+01 -9.103014887780e+01 -2.766577254845e-01 -4.625464236664e+00
 1.15000000e+01 -2.731556864410e-01 -4.982201610307e+00 -2.545903072937e+01 -9.112227704528e+01 -2.545903072937e+01 -9.112227704528e+01 -2.740420232758e-01 -4.980840752067e+00
 1.16000000e+01 -2.707877489202e-01 -5.335936300396e+00 -2.627857580066e+01 -9.115964069474e+01 -2.627857580066e+01 -9.115964069474e+01 -2.716830370541e-01 -5.334461776380e+00
 1.17000000e+01 -2.686714517862e-01 -5.687971306565e+00 -2.717741410478e+01 -9.112549165657e+01 -2.717741410478e+01 -9.112549165656e+01 -2.695758071047e-01 -5.686379329624e+00
 1.18000000e+01 -2.668020636061e-01 -6.038357380252e+00 -2.817321291490e+01 -9.099514989154e+01 -2.817321291490e+01 -9.099514989153e+01 -2.677155999365e-01 -6.036644116193e+00
 1.19000000e+01 -2.651750697599e-01 -6.387144000781e+00 -2.929020350947e+01 -9.073071430427e+01 -2.929020350947e+01 -9.073071430426e+01 -2.660978989027e-01 -6.385305568723e+00
 1.20000000e+01 -2.637861635383e-01 -6.734379417652e+00 -3.056285904798e+01 -9.027090766310e+01 -3.056285904798e+01 -9.027090766310e+01 -2.647183953080e-01 -6.732411890345e+00
 1.21000000e+01 -2.626312376987e-01 -7.080110691269e+00 -3.204252580308e+01 -8.950992119876e+01 -3.204252580308e+01 -8.950992119875e+01 -2.635729799727e-01 -7.078010095378e+00
 1.22000000e+01 -2.617063764539e-01 -7.424383732177e+00 -3.381031742477e+01 -8.824843491309e+01 -3.381031742477e+01 -8.824843491307e+01 -2.626577352304e-01 -7.422146048525e+00
 1.23000000e+01 -2.610078478707e-01 -7.767243338864e+00 -3.600464858173e+01 -8.606289252911e+01 -3.600464858173e+01 -8.606289252908e+01 -2.619689273338e-01 -7.764864502630e+00
 1.24000000e+01 -2.605320966540e-01 -8.108733234170e+00 -3.888673168945e+01 -8.187861437542e+01 -3.888673168945e+01 -8.187861437540e+01 -2.615029992469e-01 -8.106209135051e+00
 1.25000000e+01 -2.602757372966e-01 -8.448896100383e+00 -4.300200476084e+01 -7.208355312009e+01 -4.300200476084e+01 -7.208355312005e+01 -2.612565638013e-01 -8.446222582703e+00
 1.26000000e+01 -2.602355475744e-01 -8.787773613048e+00 -4.889646106467e+01 -3.872577045307e+01 -4.889646106466e+01 -3.872577045302e+01 -2.612263971992e-01 -8.784946475824e+00
 1.27000000e+01 -2.604084623685e-01 -9.125406473554e+00 -4.770059974833e+01 +3.245920932874e+01 -4.770059974832e+01 +3.245920932868e+01 -2.614094328407e-01 -9.122421470510e+00
 1.28000000e+01 -2.607915677962e-01 -9.461834440537e+00 -4.209364656148e+01 +5.765982136496e+01 -4.209364656148e+01 +5.765982136492e+01 -2.618027554621e-01 -9.458687280070e+00
 1.29000000e+01 -2.613820956352e-01 -9.797096360155e+00 -3.833812048160e+01 +6.571086660306e+01 -3.833812048160e+01 +6.571086660304e+01 -2.624035955655e-01 -9.793782705246e+00
 1.30000000e+01 -2.621774180253e-01 -1.013123019527e+01 -3.566992063793e+01 +6.934293665748e+01 -3.566992063793e+01 +6.934293665746e+01 -2.632093241258e-01 -1.012774566334e+01
 1.31000000e+01 -2.631750424320e-01 -1.046427305357e+01 -3.362082392943e+01 +7.129665131236e+01 -3.362082392943e+01 +7.129665131235e+01 -2.642174475599e-01 -1.046061321630e+01
 1.32000000e+01 -2.643726068605e-01 -1.079626121471e+01 -3.196330878380e+01 +7.244550125315e+01 -3.196330878380e+01 +7.244550125314e+01 -2.654256029456e-01 -1.079242159777e+01
 1.33000000e+01 -2.657678753046e-01 -1.112723015646e+01 -3.057409720089e+01 +7.314865392344e+01 -3.057409720089e+01 +7.314865392342e+01 -2.668315534750e-01 -1.112320623921e+01
 1.34000000e+01 -2.673587334210e-01 -1.145721457993e+01 -2.937967855858e+01 +7.357994230168e+01 -2.937967855858e+01 +7.357994230167e+01 -2.684331841337e-01 -1.145300179504e+01
 1.35000000e+01 -2.691431844153e-01 -1.178624843388e+01 -2.833290295223e+01 +7.383350380481e+01 -2.833290295223e+01 +7.383350380480e+01 -2.702284975901e-01 -1.178184216692e+01
 1.36000000e+01 -2.711193451299e-01 -1.211436493820e+01 -2.740179216084e+01 +7.396467643387e+01 -2.740179216084e+01 +7.396467643386e+01 -2.722156102887e-01 -1.210976052715e+01
 1.37000000e+01 -2.732854423249e-01 -1.244159660653e+01 -2.656368853314e+01 +7.400808932646e+01 -2.656368853314e+01 +7.400808932645e+01 -2.743927487330e-01 -1.243678934122e+01
 1.38000000e+01 -2.756398091394e-01 -1.276797526812e+01 -2.580196593053e+01 +7.398650614352e+01 -2.580196593053e+01 +7.398650614352e+01 -2.767582459517e-01 -1.276296038959e+01
 1.39000000e+01 -2.781808817276e-01 -1.309353208883e+01 -2.510406951558e+01 +7.391549767488e+01 -2.510406951558e+01 +7.391549767487e+01 -2.793105381370e-01 -1.308830478872e+01
 1.40000000e+01 -2.809071960588e-01 -1.341829759152e+01 -2.446029005800e+01 +7.380606944225e+01 -2.446029005800e+01 +7.380606944225e+01 -2.820481614482e-01 -1.341285301127e+01
