#  GHZ S DB R 50.0
 1.00000000e-02 -2.912157914641e+01 +4.564951455288e+00 -3.083713564102e-01 -1.971114394268e-01 -3.083713564102e-01 -1.971114394221e-01 -2.912156033204e+01 +4.565846776417e+00
 2.00000000e-02 -2.901278424714e+01 +8.898369033572e+00 -3.095763304151e-01 -3.889276681118e-01 -3.095763304152e-01 -3.889276681095e-01 -2.901270823758e+01 +8.900089921945e+00
 1.00000000e-01 -2.700604004253e+01 +3.617931437958e+01 -3.212266876703e-01 -1.875529640290e+00 -3.212266876704e-01 -1.875529640289e+00 -2.700500077156e+01 +3.618135581716e+01
 2.00000000e-01 -2.377566445964e+01 +5.399788933294e+01 -3.443712193314e-01 -3.693423824597e+00 -3.443712193314e-01 -3.693423824597e+00 -2.377440337280e+01 +5.399229582613e+01
 3.00000000e-01 -2.102663736710e+01 +6.216199110203e+01 -3.767142295826e-01 -5.471898991684e+00 -3.767142295826e-01 -5.471898991683e+00 -2.102603556401e+01 +6.215150759241e+01
 4.00000000e-01 -1.881867613639e+01 +6.600488883132e+01 -4.163583034018e-01 -7.212137369223e+00 -4.163583034018e-01 -7.212137369223e+00 -1.881884831092e+01 +6.599315473952e+01
 5.00000000e-01 -1.702263569447e+01 +6.773625872559e+01 -4.619697155126e-01 -8.919657249036e+00 -4.619697155127e-01 -8.919657249036e+00 -1.702343578780e+01 +6.772542525100e+01
 6.00000000e-01 -1.552962676102e+01 +6.833647388736e+01 -5.129404391401e-01 -1.059992633950e+01 -5.129404391401e-01 -1.059992633950e+01 -1.553086482713e+01 +6.832754523199e+01
 7.00000000e-01 -1.426294506944e+01 +6.828516816316e+01 -5.690514422448e-01 -1.225677529587e+01 -5.690514422449e-01 -1.225677529587e+01 -1.426445417637e+01 +6.827847042197e+01
 8.00000000e-01 -1.316947705663e+01 +6.783619405814e+01 -6.302400640901e-01 -1.389250426990e+01 -6.302400640902e-01 -1.389250426990e+01 -1.317112867556e+01 +6.783168919991e+01
 9.00000000e-01 -1.221193413950e+01 +6.713285166556e+01 -6.964903174497e-01 -1.550832622975e+01 -6.964903174498e-01 -1.550832622975e+01 -1.221363653765e+01 +6.713032674211e+01
 1.00000000e+00 -1.136355933959e+01 +6.626069627840e+01 -7.677877229332e-01 -1.710474190837e+01 -7.677877229333e-01 -1.710474190837e+01 -1.136525089264e+01 +6.625987245465e+01
 1.10000000e+00 -1.060469189325e+01 +6.527344031987e+01 -8.441022461322e-01 -1.868179940386e+01 -8.441022461322e-01 -1.868179940386e+01 -1.060633369796e+01 +6.527403221543e+01
 1.20000000e+00 -9.920544273589e+00 +6.420637012123e+01 -9.253829538490e-01 -2.023926714493e+01 -9.253829538491e-01 -2.023926714493e+01 -9.922113667840e+00 +6.420811509214e+01
 1.30000000e+00 -9.299747040604e+00 +6.308362800484e+01 -1.011557623640e+00 -2.177674994335e+01 -1.011557623640e+00 -2.177674994335e+01 -9.301232486708e+00 +6.308629797128e+01
 1.40000000e+00 -8.733379931518e+00 +6.192233367037e+01 -1.102534485012e+00 -2.329376808472e+01 -1.102534485012e+00 -2.329376808472e+01 -8.734777225913e+00 +6.192573743119e+01
 1.50000000e+00 -8.214314274049e+00 +6.073500829220e+01 -1.198204846685e+00 -2.478981181516e+01 -1.198204846685e+00 -2.478981181516e+01 -8.215623861559e+00 +6.073898913793e+01
 1.60000000e+00 -7.736757877767e+00 +5.953105243422e+01 -1.298446020558e+00 -2.626437893108e+01 -1.298446020558e+00 -2.626437893108e+01 -7.737983011504e+00 +5.953548382355e+01
 1.70000000e+00 -7.295933954458e+00 +5.831767799864e+01 -1.403124247912e+00 -2.771700044592e+01 -1.403124247912e+00 -2.771700044592e+01 -7.297079469164e+00 +5.832245878193e+01
 1.80000000e+00 -6.887850388754e+00 +5.710051485982e+01 -1.512097477543e+00 -2.914725767056e+01 -1.512097477543e+00 -2.914725767056e+01 -6.888921902832e+00 +5.710556477156e+01
 1.90000000e+00 -6.509131024562e+00 +5.588401773953e+01 -1.625217921295e+00 -3.055479302474e+01 -1.625217921295e+00 -3.055479302474e+01 -6.510134433611e+00 +5.588927345400e+01
 2.00000000e+00 -6.156890269215e+00 +5.467174690729e+01 -1.742334354407e+00 -3.193931623571e+01 -1.742334354407e+00 -3.193931623571e+01 -6.157831433760e+00 +5.467715872783e+01
 2.10000000e+00 -5.828638463134e+00 +5.346656703882e+01 -1.863294151991e+00 -3.330060713465e+01 -1.863294151991e+00 -3.330060713465e+01 -5.829523023626e+00 +5.347209618485e+01
 2.20000000e+00 -5.522209446317e+00 +5.227079164362e+01 -1.987945066733e+00 -3.463851595205e+01 -1.987945066733e+00 -3.463851595205e+01 -5.523042720396e+00 +5.227640805818e+01
 2.30000000e+00 -5.235704377352e+00 +5.108629042713e+01 -2.116136760749e+00 -3.595296179208e+01 -2.116136760749e+00 -3.595296179208e+01 -5.236491309579e+00 +5.109197101790e+01
 2.40000000e+00 -4.967447617569e+00 +4.991457084094e+01 -2.247722108805e+00 -3.724392980451e+01 -2.247722108805e+00 -3.724392980451e+01 -4.968192762100e+00 +4.992029807400e+01
 2.50000000e+00 -4.715951687650e+00 +4.875684127176e+01 -2.382558292192e+00 -3.851146745235e+01 -2.382558292192e+00 -3.851146745235e+01 -4.716659211172e+00 +4.876260204835e+01
 2.60000000e+00 -4.479889128612e+00 +4.761406090088e+01 -2.520507703276e+00 -3.975568018225e+01 -2.520507703276e+00 -3.975568018225e+01 -4.480562825329e+00 +4.761984565970e+01
 2.70000000e+00 -4.258069676416e+00 +4.648697969731e+01 -2.661438680664e+00 -4.097672673473e+01 -2.661438680664e+00 -4.097672673473e+01 -4.258712989802e+00 +4.649278169627e+01
 2.80000000e+00 -4.049421569147e+00 +4.537617097073e+01 -2.805226094237e+00 -4.217481427651e+01 -2.805226094237e+00 -4.217481427651e+01 -4.050037617090e+00 +4.538198571152e+01
 2.90000000e+00 -3.852976100157e+00 +4.428205821347e+01 -2.951751798406e+00 -4.335019349439e+01 -2.951751798406e+00 -4.335019349439e+01 -3.853567701333e+00 +4.428788297983e+01
 3.00000000e+00 -3.667854744695e+00 +4.320493748394e+01 -3.100904970741e+00 -4.450315375625e+01 -3.100904970741e+00 -4.450315375625e+01 -3.668424444832e+00 +4.321077097088e+01
 3.10000000e+00 -3.493258345023e+00 +4.214499625342e+01 -3.252582351906e+00 -4.563401841742e+01 -3.252582351906e+00 -4.563401841743e+01 -3.493808442228e+00 +4.215083826929e+01
 3.20000000e+00 -3.328457956046e+00 +4.110232940561e+01 -3.406688401525e+00 -4.674314032926e+01 -3.406688401525e+00 -4.674314032926e+01 -3.328990524726e+00 +4.110818063268e+01
 3.30000000e+00 -3.172787041263e+00 +4.007695291201e+01 -3.563135383319e+00 -4.783089758935e+01 -3.563135383319e+00 -4.783089758935e+01 -3.173303954373e+00 +4.008281471415e+01
 3.40000000e+00 -3.025634775342e+00 +3.906881558644e+01 -3.721843391572e+00 -4.889768955907e+01 -3.721843391572e+00 -4.889768955907e+01 -3.026137724868e+00 +3.907468985476e+01
 3.50000000e+00 -2.886440260331e+00 +3.807780923397e+01 -3.882740329797e+00 -4.994393316328e+01 -3.882740329797e+00 -4.994393316328e+01 -2.886930775992e+00 +3.808369826316e+01
 3.60000000e+00 -2.754687501630e+00 +3.710377744450e+01 -4.045761851289e+00 -5.097005947844e+01 -4.045761851289e+00 -5.097005947844e+01 -2.755166967844e+00 +3.710968383402e+01
 3.70000000e+00 -2.629901020074e+00 +3.614652323230e+01 -4.210851270223e+00 -5.197651060859e+01 -4.210851270223e+00 -5.197651060859e+01 -2.630370691283e+00 +3.615244980752e+01
 3.80000000e+00 -2.511642000148e+00 +3.520581568539e+01 -4.377959450916e+00 -5.296373684375e+01 -4.377959450916e+00 -5.296373684375e+01 -2.512103014615e+00 +3.521176543503e+01
 3.90000000e+00 -2.399504892954e+00 +3.428139576028e+01 -4.547044681996e+00 -5.393219409135e+01 -4.547044681996e+00 -5.393219409135e+01 -2.399958285128e+00 +3.428737178696e+01
 4.00000000e+00 -2.293114407203e+00 +3.337298133493e+01 -4.718072541395e+00 -5.488234156849e+01 -4.718072541395e+00 -5.488234156849e+01 -2.293561118802e+00 +3.337898681630e+01
 4.10000000e+00 -2.192122833268e+00 +3.248027161522e+01 -4.891015757326e+00 -5.581463974114e+01 -4.891015757326e+00 -5.581463974114e+01 -2.192563723177e+00 +3.248630977372e+01
 4.20000000e+00 -2.096207654642e+00 +3.160295097603e+01 -5.065854069775e+00 -5.672954849482e+01 -5.065854069775e+00 -5.672954849482e+01 -2.096643507750e+00 +3.160902505557e+01
 4.30000000e+00 -2.005069408742e+00 +3.074069230646e+01 -5.242574096454e+00 -5.762752552096e+01 -5.242574096454e+00 -5.762752552096e+01 -2.005500943824e+00 +3.074680555460e+01
 4.40000000e+00 -1.918429765075e+00 +2.989315991916e+01 -5.421169206661e+00 -5.850902490259e+01 -5.421169206661e+00 -5.850902490259e+01 -1.918857641812e+00 +2.989931557395e+01
 4.50000000e+00 -1.836029793779e+00 +2.906001207624e+01 -5.601639406072e+00 -5.937449588338e+01 -5.601639406072e+00 -5.937449588338e+01 -1.836454619014e+00 +2.906621335653e+01
 4.60000000e+00 -1.757628401613e+00 +2.824090317706e+01 -5.783991235141e+00 -6.022438180415e+01 -5.783991235141e+00 -6.022438180415e+01 -1.758050734919e+00 +2.824715327584e+01
 4.70000000e+00 -1.683000915846e+00 +2.743548564816e+01 -5.968237683478e+00 -6.105911919162e+01 -5.968237683478e+00 -6.105911919162e+01 -1.683421274481e+00 +2.744178772816e+01
 4.80000000e+00 -1.611937799248e+00 +2.664341157032e+01 -6.154398122364e+00 -6.187913698486e+01 -6.154398122364e+00 -6.187913698486e+01 -1.612356662556e+00 +2.664976876148e+01
 4.90000000e+00 -1.544243481707e+00 +2.586433407390e+01 -6.342498257376e+00 -6.268485588561e+01 -6.342498257376e+00 -6.268485588561e+01 -1.544661295039e+00 +2.587074947234e+01
 5.00000000e+00 -1.479735295952e+00 +2.509790852987e+01 -6.532570102969e+00 -6.347668781938e+01 -6.532570102969e+00 -6.347668781938e+01 -1.480152474142e+00 +2.510438519794e+01
 5.10000000e+00 -1.418242506439e+00 +2.434379356082e+01 -6.724651980840e+00 -6.425503549533e+01 -6.724651980840e+00 -6.425503549533e+01 -1.418659436892e+00 +2.435033452808e+01
 5.20000000e+00 -1.359605421888e+00 +2.360165189347e+01 -6.918788543809e+00 -6.502029205341e+01 -6.918788543809e+00 -6.502029205341e+01 -1.360022467315e+00 +2.360826015829e+01
 5.30000000e+00 -1.303674583076e+00 +2.287115107176e+01 -7.115030827072e+00 -6.577284078844e+01 -7.115030827072e+00 -6.577284078844e+01 -1.304092083923e+00 +2.287782960344e+01
 5.40000000e+00 -1.250310018523e+00 +2.215196404756e+01 -7.313436328677e+00 -6.651305494126e+01 -7.313436328677e+00 -6.651305494126e+01 -1.250728295121e+00 +2.215871578872e+01
 5.50000000e+00 -1.199380561551e+00 +2.144376966383e+01 -7.514069121285e+00 -6.724129754817e+01 -7.514069121285e+00 -6.724129754818e+01 -1.199799916019e+00 +2.145059753311e+01
 5.60000000e+00 -1.150763222919e+00 +2.074625304389e+01 -7.716999997397e+00 -6.795792134030e+01 -7.716999997397e+00 -6.795792134030e+01 -1.151183940850e+00 +2.075315993861e+01
 5.70000000e+00 -1.104342613899e+00 +2.005910589823e+01 -7.922306650490e+00 -6.866326868539e+01 -7.922306650490e+00 -6.866326868539e+01 -1.104764965857e+00 +2.006609469720e+01
 5.80000000e+00 -1.060010415195e+00 +1.938202675977e+01 -8.130073894815e+00 -6.935767156499e+01 -8.130073894815e+00 -6.935767156499e+01 -1.060434658043e+00 +1.938910032604e+01
 5.90000000e+00 -1.017664887589e+00 +1.871472115657e+01 -8.340393926911e+00 -7.004145158072e+01 -8.340393926911e+00 -7.004145158072e+01 -1.018091265670e+00 +1.872188234009e+01
 6.00000000e+00 -9.772104206403e-01 +1.805690173042e+01 -8.553366632382e+00 -7.071491998343e+01 -8.553366632382e+00 -7.071491998343e+01 -9.776391668332e-01 +1.806415337058e+01
 6.10000000e+00 -9.385571161070e-01 +1.740828830845e+01 -8.769099941914e+00 -7.137837771991e+01 -8.769099941914e+00 -7.137837771992e+01 -9.389884527719e-01 +1.741563323661e+01
 6.20000000e+00 -9.016204031197e-01 +1.676860793441e+01 -8.987710241157e+00 -7.203211549185e+01 -8.987710241157e+00 -7.203211549185e+01 -9.020545429481e-01 +1.677604897617e+01
 6.30000000e+00 -8.663206823987e-01 +1.613759486514e+01 -9.209322839757e+00 -7.267641382196e+01 -9.209322839757e+00 -7.267641382196e+01 -8.667578291825e-01 +1.614513484261e+01
 6.40000000e+00 -8.325829970857e-01 +1.551499053737e+01 -9.434072505637e+00 -7.331154312274e+01 -9.434072505637e+00 -7.331154312274e+01 -8.330233464147e-01 +1.552263227125e+01
 6.50000000e+00 -8.003367279764e-01 +1.490054350926e+01 -9.662104071591e+00 -7.393776376304e+01 -9.662104071591e+00 -7.393776376304e+01 -8.007804678746e-01 +1.490828982087e+01
 6.60000000e+00 -7.695153111544e-01 +1.429400938063e+01 -9.893573122362e+00 -7.455532612773e+01 -9.893573122362e+00 -7.455532612774e+01 -7.699626226622e-01 +1.430186309381e+01
 6.70000000e+00 -7.400559762035e-01 +1.369515069525e+01 -1.012864677169e+01 -7.516447066604e+01 -1.012864677169e+01 -7.516447066604e+01 -7.405070339135e-01 +1.370311463821e+01
 6.80000000e+00 -7.118995033447e-01 +1.310373682825e+01 -1.036750454037e+01 -7.576542792326e+01 -1.036750454037e+01 -7.576542792326e+01 -7.123544758941e-01 +1.311181383533e+01
 6.90000000e+00 -6.849899979876e-01 +1.251954386137e+01 -1.061033934818e+01 -7.635841855099e+01 -1.061033934818e+01 -7.635841855099e+01 -6.854490485142e-01 +1.252773677476e+01
 7.00000000e+00 -6.592746813222e-01 +1.194235444822e+01 -1.085735863477e+01 -7.694365328997e+01 -1.085735863477e+01 -7.694365328997e+01 -6.597379678851e-01 +1.195066611965e+01
 7.10000000e+00 -6.347036956943e-01 +1.137195767174e+01 -1.110878562709e+01 -7.752133291941e+01 -1.110878562709e+01 -7.752133291941e+01 -6.351713716639e-01 +1.138039096409e+01
 7.20000000e+00 -6.112299236171e-01 +1.080814889553e+01 -1.136486077416e+01 -7.809164816558e+01 -1.136486077416e+01 -7.809164816558e+01 -6.117021380354e-01 +1.081670668444e+01
 7.30000000e+00 -5.888088193690e-01 +1.025072961058e+01 -1.162584337366e+01 -7.865477956159e+01 -1.162584337366e+01 -7.865477956160e+01 -5.892857172833e-01 +1.025941478605e+01
 7.40000000e+00 -5.673982522159e-01 +9.699507278877e+00 -1.189201341923e+01 -7.921089724871e+01 -1.189201341923e+01 -7.921089724872e+01 -5.678799749874e-01 +9.708322746764e+00
 7.50000000e+00 -5.469583603780e-01 +9.154295174798e+00 -1.216367370306e+01 -7.976016070794e+01 -1.216367370306e+01 -7.976016070794e+01 -5.474450459662e-01 +9.163243858394e+00
 7.60000000e+00 -5.274514149316e-01 +8.614912225564e+00 -1.244115221471e+01 -8.030271840824e+01 -1.244115221471e+01 -8.030271840824e+01 -5.279431981565e-01 +8.623997067070e+00
 7.70000000e+00 -5.088416929051e-01 +8.081182851388e+00 -1.272480488531e+01 -8.083870735502e+01 -1.272480488531e+01 -8.083870735502e+01 -5.093387056890e-01 +8.090406813401e+00
 7.80000000e+00 -4.910953588882e-01 +7.552936806173e+00 -1.301501873660e+01 -8.136825251868e+01 -1.301501873660e+01 -8.136825251869e+01 -4.915977304772e-01 +7.562302873144e+00
 7.90000000e+00 -4.741803545265e-01 +7.030009019344e+00 -1.331221550605e+01 -8.189146611852e+01 -1.331221550605e+01 -8.189146611852e+01 -4.746882116945e-01 +7.039520199005e+00
 8.00000000e+00 -4.580662953275e-01 +6.512239439338e+00 -1.361685583535e+01 -8.240844673105e+01 -1.361685583535e+01 -8.240844673106e+01 -4.585797625625e-01 +6.521898764110e+00
 8.10000000e+00 -4.427243742461e-01 +5.999472879201e+00 -1.392944412843e+01 -8.291927818423e+01 -1.392944412843e+01 -8.291927818424e+01 -4.432435739205e-01 +6.009283407573e+00
 8.20000000e+00 -4.281272715614e-01 +5.491558864666e+00 -1.425053420977e+01 -8.342402818863e+01 -1.425053420977e+01 -8.342402818864e+01 -4.286523240885e-01 +5.501523682545e+00
 8.30000000e+00 -4.142490705953e-01 +4.988351484998e+00 -1.458073594461e+01 -8.392274664354e+01 -1.458073594461e+01 -8.392274664355e+01 -4.147800945717e-01 +4.998473707030e+00
 8.40000000e+00 -4.010651788578e-01 +4.489709246868e+00 -1.492072302238e+01 -8.441546353818e+01 -1.492072302238e+01 -8.441546353818e+01 -4.016022911932e-01 +4.499992017735e+00
 8.50000000e+00 -3.885522542347e-01 +3.995494931445e+00 -1.527124215552e+01 -8.490218634478e+01 -1.527124215552e+01 -8.490218634478e+01 -3.890955702707e-01 +4.005941427129e+00
 8.60000000e+00 -3.766881358653e-01 +3.505575454854e+00 -1.563312401259e+01 -8.538289676878e+01 -1.563312401259e+01 -8.538289676878e+01 -3.772377694839e-01 +3.516188883878e+00
 8.70000000e+00 -3.654517793838e-01 +3.019821732134e+00 -1.600729629155e+01 -8.585754667820e+01 -1.600729629155e+01 -8.585754667820e+01 -3.660078431064e-01 +3.030605336768e+00
 8.80000000e+00 -3.548231962204e-01 +2.538108544750e+00 -1.639479945465e+01 -8.632605297569e+01 -1.639479945465e+01 -8.632605297569e+01 -3.553858012985e-01 +2.549065602200e+00
 8.90000000e+00 -3.447833966857e-01 +2.060314411741e+00 -1.679680580121e+01 -8.678829109442e+01 -1.679680580121e+01 -8.678829109443e+01 -3.453526531841e-01 +2.071448235303e+00
 9.00000000e+00 -3.353143365779e-01 +1.586321464513e+00 -1.721464276368e+01 -8.724408668399e+01 -1.721464276368e+01 -8.724408668399e+01 -3.358903534502e-01 +1.597635404714e+00
 9.10000000e+00 -3.263988670742e-01 +1.116015325302e+00 -1.764982159993e+01 -8.769320488788e+01 -1.764982159993e+01 -8.769320488789e+01 -3.269817522336e-01 +1.127512771011e+00
 9.20000000e+00 -3.180206876862e-01 +6.492849892880e-01 -1.810407305246e+01 -8.813533637623e+01 -1.810407305246e+01 -8.813533637624e+01 -3.186105480695e-01 +6.609693688064e-01
 9.30000000e+00 -3.101643020723e-01 +1.860227103352e-01 -1.857939210693e+01 -8.857007894736e+01 -1.857939210693e+01 -8.857007894736e+01 -3.107612436999e-01 +1.978974924742e-01
 9.40000000e+00 -3.028149765180e-01 -2.738761096677e-01 -1.907809478435e+01 -8.899691298769e+01 -1.907809478435e+01 -8.899691298770e+01 -3.034191045492e-01 -2.618074145314e-01
 9.50000000e+00 -2.959587009074e-01 -7.305130279270e-01 -1.960289106842e+01 -8.941516828030e+01 -1.960289106842e+01 -8.941516828031e+01 -2.965701196918e-01 -7.182468668082e-01
 9.60000000e+00 -2.895821520228e-01 -1.183986664373e+00 -2.015697979884e+01 -8.982397840613e+01 -2.015697979884e+01 -8.982397840614e+01 -2.902009651483e-01 -1.171519440650e+00
 9.70000000e+00 -2.836726590185e-01 -1.634392801863e+00 -2.074417397774e+01 -9.022221699484e+01 -2.074417397774e+01 -9.022221699485e+01 -2.842989693564e-01 -1.621720874259e+00
 9.80000000e+00 -2.782181709302e-01 -2.081824483035e+00 -2.136906898559e+01 -9.060840682728e+01 -2.136906898559e+01 -9.060840682729e+01 -2.788520806776e-01 -2.068944164609e+00
 9.90000000e+00 -2.732072260873e-01 -2.526372103872e+00 -2.203727263484e+01 -9.098058730502e+01 -2.203727263484e+01 -9.098058730503e+01 -2.738488368070e-01 -2.513279661019e+00
 1.00000000e+01 -2.686289233068e-01 -2.968123504074e+00 -2.275572650396e+01 -9.133611624099e+01 -2.275572650396e+01 -9.133611624101e+01 -2.692783359650e-01 -2.954815155531e+00
 1.01000000e+01 -2.644728947543e-01 -3.407164054306e+00 -2.353316576082e+01 -9.167136462750e+01 -2.353316576082e+01 -9.167136462751e+01 -2.651302097568e-01 -3.393635970158e+00
 1.02000000e+01 -2.607292803691e-01 -3.843576740410e+00 -2.438079585848e+01 -9.198123036085e+01 -2.438079585848e+01 -9.198123036087e+01 -2.613945975956e-01 -3.829825041104e+00
 1.03000000e+01 -2.573887037521e-01 -4.277442244665e+00 -2.531332163929e+01 -9.225833199481e+01 -2.531332163929e+01 -9.225833199482e+01 -2.580621225889e-01 -4.263463000022e+00
 1.04000000e+01 -2.544422494274e-01 -4.708839024181e+00 -2.635057470382e+01 -9.249160680116e+01 -2.635057470382e+01 -9.249160680118e+01 -2.551238687996e-01 -4.694628252405e+00
 1.05000000e+01 -2.518814413920e-01 -5.137843386507e+00 -2.752021135603e+01 -9.266372790949e+01 -2.752021135603e+01 -9.266372790951e+01 -2.525713597935e-01 -5.123397053200e+00
 1.06000000e+01 -2.496982228732e-01 -5.564529562556e+00 -2.886245440696e+01 -9.274599143267e+01 -2.886245440696e+01 -9.274599143269e+01 -2.503965383963e-01 -5.549843579720e+00
 1.07000000e+01 -2.478849372209e-01 -5.988969776908e+00 -3.043906881075e+01 -9.268722152660e+01 -3.043906881075e+01 -9.268722152662e+01 -2.485917475853e-01 -5.974040001947e+00
 1.08000000e+01 -2.464343098651e-01 -6.411234315588e+00 -3.235209358327e+01 -9.238656469159e+01 -3.235209358327e+01 -9.238656469162e+01 -2.471497124454e-01 -6.396056550304e+00
 1.09000000e+01 -2.453394312747e-01 -6.831391591404e+00 -3.478858456007e+01 -9.161425679681e+01 -3.478858456007e+01 -9.161425679685e+01 -2.460635231279e-01 -6.815961580986e+00
 1.10000000e+01 -2.445937408567e-01 -7.249508206925e+00 -3.815124763955e+01 -8.971090870711e+01 -3.815124763956e+01 -8.971090870717e+01 -2.453266187488e-01 -7.233821638924e+00
 1.11000000e+01 -2.441910117413e-01 -7.665649015165e+00 -4.359112332620e+01 -8.373898429650e+01 -4.359112332621e+01 -8.373898429664e+01 -2.449327721733e-01 -7.649701518469e+00
 1.12000000e+01 -2.441253363976e-01 -8.079877178079e+00 -5.551102687943e+01 -2.932045903719e+01 -5.551102687951e+01 -2.932045903732e+01 -2.448760756313e-01 -8.063664321866e+00
 1.13000000e+01 -2.443911130347e-01 -8.492254222914e+00 -4.536069386418e+01 +6.496456642870e+01 -4.536069386418e+01 +6.496456642887e+01 -2.451509271181e-01 -8.475771515604e+00
 1.14000000e+01 -2.449830327388e-01 -8.902840096525e+00 -3.915472888826e+01 +7.321441882302e+01 -3.915472888826e+01 +7.321441882310e+01 -2.457520175308e-01 -8.886082984711e+00
 1.15000000e+01 -2.458960673057e-01 -9.311693217693e+00 -3.554587341206e+01 +7.557126037305e+01 -3.554587341206e+01 +7.557126037310e+01 -2.466743185008e-01 -9.294657085059e+00
 1.16000000e+01 -2.471254577281e-01 -9.718870527542e+00 -3.300829646026e+01 +7.651396913799e+01 -3.300829646026e+01 +7.651396913803e+01 -2.479130708810e-01 -9.701550693773e+00
 1.17000000e+01 -2.486667032997e-01 -1.012442753811e+01 -3.105383059421e+01 +7.690467715682e+01 -3.105383059421e+01 +7.690467715685e+01 -2.494637738491e-01 -1.010681925778e+01
 1.18000000e+01 -2.505155513012e-01 -1.052841837917e+01 -2.946595345331e+01 +7.702399571645e+01 -2.946595345331e+01 +7.702399571647e+01 -2.513221745943e-01 -1.051051684060e+01
 1.19000000e+01 -2.526679872365e-01 -1.093089584326e+01 -2.812981793475e+01 +7.699033087591e+01 -2.812981793475e+01 +7.699033087593e+01 -2.534842585521e-01 -1.091269616741e+01
 1.20000000e+01 -2.551202255855e-01 -1.133191142919e+01 -2.697721014259e+01 +7.686223022065e+01 -2.697721014259e+01 +7.686223022066e+01 -2.559462401584e-01 -1.131340866845e+01
 1.21000000e+01 -2.578687010480e-01 -1.173151538384e+01 -2.596431199045e+01 +7.667194151173e+01 -2.596431199045e+01 +7.667194151175e+01 -2.587045540920e-01 -1.171270452087e+01
 1.22000000e+01 -2.609100602494e-01 -1.212975674250e+01 -2.506130712868e+01 +7.643867609966e+01 -2.506130712868e+01 +7.643867609968e+01 -2.617558469811e-01 -1.211063268904e+01
 1.23000000e+01 -2.642411538826e-01 -1.252668336771e+01 -2.424698978410e+01 +7.617458280895e+01 -2.424698978410e+01 +7.617458280896e+01 -2.650969695446e-01 -1.250724096332e+01
 1.24000000e+01 -2.678590292648e-01 -1.292234198667e+01 -2.350574058846e+01 +7.588771335061e+01 -2.350574058846e+01 +7.588771335062e+01 -2.687249691493e-01 -1.290257599752e+01
 1.25000000e+01 -2.717609232836e-01 -1.331677822733e+01 -2.282572295940e+01 +7.558360973359e+01 -2.282572295940e+01 +7.558360973360e+01 -2.726370827556e-01 -1.329668334490e+01
 1.26000000e+01 -2.759442557138e-01 -1.371003665306e+01 -2.219775303351e+01 +7.526620694918e+01 -2.219775303351e+01 +7.526620694919e+01 -2.768307302341e-01 -1.368960749288e+01
 1.27000000e+01 -2.804066228841e-01 -1.410216079620e+01 -2.161456227870e+01 +7.493837235776e+01 -2.161456227870e+01 +7.493837235777e+01 -2.813035080331e-01 -1.408139189650e+01
 1.28000000e+01 -2.851457916756e-01 -1.449319319021e+01 -2.107029968198e+01 +7.460224161764e+01 -2.107029968198e+01 +7.460224161765e+01 -2.860531831762e-01 -1.447207901060e+01
 1.29000000e+01 -2.901596938342e-01 -1.488317540083e+01 -2.056018580420e+01 +7.425943538426e+01 -2.056018580420e+01 +7.425943538427e+01 -2.910776875753e-01 -1.486171032092e+01
 1.30000000e+01 -2.954464205818e-01 -1.527214805593e+01 -2.008026630170e+01 +7.391120338570e+01 -2.008026630170e+01 +7.391120338570e+01 -2.963751126418e-01 -1.525032637395e+01
 1.31000000e+01 -3.010042175091e-01 -1.566015087439e+01 -1.962723246144e+01 +7.355852276275e+01 -1.962723246144e+01 +7.355852276276e+01 -3.019437041790e-01 -1.563796680574e+01
 1.32000000e+01 -3.068314797369e-01 -1.604722269386e+01 -1.919828801304e+01 +7.320216675686e+01 -1.919828801304e+01 +7.320216675687e+01 -3.077818575442e-01 -1.602467036969e+01
 1.33000000e+01 -3.129267473326e-01 -1.643340149754e+01 -1.879104859993e+01 +7.284275367488e+01 -1.879104859993e+01 +7.284275367489e+01 -3.138881130647e-01 -1.641047496326e+01
 1.34000000e+01 -3.192887009676e-01 -1.681872443994e+01 -1.840346474897e+01 +7.248078243403e+01 -1.840346474897e+01 +7.248078243403e+01 -3.202611516954e-01 -1.679541765369e+01
 1.35000000e+01 -3.259161578045e-01 -1.720322787177e+01 -1.803376204131e+01 +7.211665878844e+01 -1.803376204131e+01 +7.211665878844e+01 -3.268997909066e-01 -1.717953470290e+01
 1.36000000e+01 -3.328080676034e-01 -1.758694736382e+01 -1.768039407236e+01 +7.175071496659e+01 -1.768039407236e+01 +7.175071496659e+01 -3.338029807899e-01 -1.756286159131e+01
 1.37000000e+01 -3.399635090356e-01 -1.796991773004e+01 -1.734200505466e+01 +7.138322457186e+01 -1.734200505466e+01 +7.138322457187e+01 -3.409698003720e-01 -1.794543304089e+01
 1.38000000e+01 -3.473816861946e-01 -1.835217304974e+01 -1.701739978503e+01 +7.101441402653e+01 -1.701739978503e+01 +7.101441402654e+01 -3.483994541267e-01 -1.832728303734e+01
 1.39000000e+01 -3.550619252962e-01 -1.873374668898e+01 -1.670551930178e+01 +7.064447145885e+01 -1.670551930178e+01 +7.064447145886e+01 -3.560912686740e-01 -1.870844485141e+01
 1.40000000e+01 -3.630036715569e-01 -1.911467132120e+01 -1.640542098547e+01 +7.027355367486e+01 -1.640542098547e+01 +7.027355367487e+01 -3.640446896600e-01 -1.908895105954e+01
