#  GHZ S DB R 50.0
 1.00000000e-02 -2.910527258991e+01 +4.555657791738e+00 -3.089652915773e-01 -1.970978261283e-01 -3.089652915774e-01 -1.970978261191e-01 -2.910525369421e+01 +4.556564529467e+00
 2.00000000e-02 -2.899687999491e+01 +8.880589844709e+00 -3.101691395187e-01 -3.889019256550e-01 -3.101691395188e-01 -3.889019256504e-01 -2.899680357273e+01 +8.882332379650e+00
 1.00000000e-01 -2.699611502746e+01 +3.612467138846e+01 -3.218257639285e-01 -1.875391855526e+00 -3.218257639286e-01 -1.875391855525e+00 -2.699506557062e+01 +3.612683519978e+01
 2.00000000e-01 -2.377147668756e+01 +5.394750512623e+01 -3.449583185599e-01 -3.693157760048e+00 -3.449583185601e-01 -3.693157760047e+00 -2.377017209029e+01 +5.394199665836e+01
 3.00000000e-01 -2.102467375284e+01 +6.212253336851e+01 -3.773002758129e-01 -5.471578745870e+00 -3.773002758130e-01 -5.471578745869e+00 -2.102401472715e+01 +6.211191919554e+01
 4.00000000e-01 -1.881770804822e+01 +6.597316574945e+01 -4.169509194284e-01 -7.211714242204e+00 -4.169509194285e-01 -7.211714242203e+00 -1.881783192547e+01 +6.596114035564e+01
 5.00000000e-01 -1.702221937381e+01 +6.771005925454e+01 -4.625658082402e-01 -8.919080235947e+00 -4.625658082403e-01 -8.919080235946e+00 -1.702298105045e+01 +6.769887268934e+01
 6.00000000e-01 -1.552954203644e+01 +6.831448920513e+01 -5.135336759574e-01 -1.059918379371e+01 -5.135336759575e-01 -1.059918379371e+01 -1.553074407717e+01 +6.830518052905e+01
 7.00000000e-01 -1.426306073176e+01 +6.826649078900e+01 -5.696374195303e-01 -1.225588166212e+01 -5.696374195303e-01 -1.225588166212e+01 -1.426453062317e+01 +6.825937484544e+01
 8.00000000e-01 -1.316971358634e+01 +6.782013382824e+01 -6.308171305696e-01 -1.389147919973e+01 -6.308171305696e-01 -1.389147919973e+01 -1.317132102715e+01 +6.781514938174e+01
 9.00000000e-01 -1.221224504819e+01 +6.711888036872e+01 -6.970584765773e-01 -1.550718379504e+01 -6.970584765773e-01 -1.550718379503e+01 -1.221389896345e+01 +6.711579659606e+01
 1.00000000e+00 -1.136391816586e+01 +6.624841741423e+01 -7.683474596914e-01 -1.710348891617e+01 -7.683474596915e-01 -1.710348891617e+01 -1.136555845587e+01 +6.624694661516e+01
 1.10000000e+00 -1.060508345006e+01 +6.526256008479e+01 -8.446538730758e-01 -1.868043766738e+01 -8.446538730759e-01 -1.868043766738e+01 -1.060667268570e+01 +6.526241496765e+01
 1.20000000e+00 -9.920959376215e+00 +6.419667036902e+01 -9.259264145572e-01 -2.023779621869e+01 -9.259264145573e-01 -2.023779621869e+01 -9.922475972262e+00 +6.419759022339e+01
 1.30000000e+00 -9.300179635894e+00 +6.307494425105e+01 -1.012092536799e+00 -2.177516899648e+01 -1.012092536799e+00 -2.177516899648e+01 -9.301612705818e+00 +6.307670438471e+01
 1.40000000e+00 -8.733825652482e+00 +6.191453895255e+01 -1.103060262834e+00 -2.329207680900e+01 -1.103060262834e+00 -2.329207680900e+01 -8.735171314535e+00 +6.191695162073e+01
 1.50000000e+00 -8.214769747056e+00 +6.072800206159e+01 -1.198720804063e+00 -2.478801067907e+01 -1.198720804063e+00 -2.478801067907e+01 -8.216028555425e+00 +6.073091346483e+01
 1.60000000e+00 -7.737220390879e+00 +5.952475314925e+01 -1.298951448653e+00 -2.626246910624e+01 -1.298951448653e+00 -2.626246910624e+01 -7.738395590801e+00 +5.952803895392e+01
 1.70000000e+00 -7.296401285922e+00 +5.831201821016e+01 -1.403618453671e+00 -2.771498362479e+01 -1.403618453671e+00 -2.771498362479e+01 -7.297497651305e+00 +5.831557883760e+01
 1.80000000e+00 -6.888320703095e+00 +5.709543789343e+01 -1.512579799600e+00 -2.914513588757e+01 -1.512579799600e+00 -2.914513588757e+01 -6.889343776219e+00 +5.709919415507e+01
 1.90000000e+00 -6.509602798046e+00 +5.587947538229e+01 -1.625687732673e+00 -3.055256852196e+01 -1.625687732673e+00 -3.055256852196e+01 -6.510558402081e+00 +5.588336468134e+01
 2.00000000e+00 -6.157362230683e+00 +5.466769773085e+01 -1.742791059459e+00 -3.193699137686e+01 -1.742791059459e+00 -3.193699137686e+01 -6.158256164904e+00 +5.467167087104e+01
 2.10000000e+00 -5.829109545597e+00 +5.346297513787e+01 -1.863737181919e+00 -3.329818435661e+01 -1.863737181919e+00 -3.329818435661e+01 -5.829947401678e+00 +5.346699369726e+01
 2.20000000e+00 -5.522678747699e+00 +5.226762565837e+01 -1.988373875714e+00 -3.463599773997e+01 -1.988373875714e+00 -3.463599773997e+01 -5.523465805425e+00 +5.227165985435e+01
 2.30000000e+00 -5.236171129318e+00 +5.108352276965e+01 -2.116550823283e+00 -3.595035066675e+01 -2.116550823283e+00 -3.595035066675e+01 -5.236912303851e+00 +5.108754973564e+01
 2.40000000e+00 -4.967911161312e+00 +4.991217707493e+01 -2.248120918198e+00 -3.724122831426e+01 -2.248120918198e+00 -3.724122831426e+01 -4.968610983450e+00 +4.991617947464e+01
 2.50000000e+00 -4.716411455401e+00 +4.875479961140e+01 -2.382941359795e+00 -3.850867816503e+01 -2.382941359795e+00 -3.850867816503e+01 -4.717074072524e+00 +4.875876452657e+01
 2.60000000e+00 -4.480344629635e+00 +4.761235180422e+01 -2.520874558084e+00 -3.975280567555e+01 -2.520874558084e+00 -3.975280567555e+01 -4.480973819222e+00 +4.761626984242e+01
 2.70000000e+00 -4.258520486394e+00 +4.648558553529e+01 -2.661788868930e+00 -4.097376958434e+01 -2.661788868930e+00 -4.097376958434e+01 -4.259119676759e+00 +4.648945011419e+01
 2.80000000e+00 -4.049867322043e+00 +4.537507575727e+01 -2.805559178895e+00 -4.217177704264e+01 -2.805559178895e+00 -4.217177704264e+01 -4.050439616808e+00 +4.537888253020e+01
 2.90000000e+00 -3.853416481829e+00 +4.428124738466e+01 -2.952067358165e+00 -4.334707870747e+01 -2.952067358165e+00 -4.334707870747e+01 -3.853964685860e+00 +4.428499377930e+01
 3.00000000e+00 -3.668289487716e+00 +4.320439771665e+01 -3.101202598812e+00 -4.449996390264e+01 -3.101202598812e+00 -4.449996390264e+01 -3.668816133114e+00 +4.320808256452e+01
 3.10000000e+00 -3.493687224327e+00 +4.214471531579e+01 -3.252861654374e+00 -4.563075592586e+01 -3.252861654374e+00 -4.563075592586e+01 -3.494194595573e+00 +4.214833855432e+01
 3.20000000e+00 -3.328880785130e+00 +4.110229603286e+01 -3.406948995401e+00 -4.673980755853e+01 -3.406948995401e+00 -4.673980755853e+01 -3.329370942868e+00 +4.110585846607e+01
 3.30000000e+00 -3.173203668759e+00 +4.007715670275e+01 -3.563376894336e+00 -4.782749681762e+01 -3.563376894336e+00 -4.782749681762e+01 -3.173678471964e+00 +4.008065980875e+01
 3.40000000e+00 -3.026045081842e+00 +3.906924691529e+01 -3.722065451788e+00 -4.889422297504e+01 -3.722065451788e+00 -4.889422297504e+01 -3.026506208243e+00 +3.907269269174e+01
 3.50000000e+00 -2.886844155410e+00 +3.807845917731e+01 -3.882942575048e+00 -4.994040285924e+01 -3.882942575048e+00 -4.994040285924e+01 -2.887293120165e+00 +3.808185001738e+01
 3.60000000e+00 -2.755084920997e+00 +3.710463771683e+01 -4.045943918571e+00 -5.096646744513e+01 -4.045943918571e+00 -5.096646744513e+01 -2.755523093682e+00 +3.710797630986e+01
 3.70000000e+00 -2.630291922854e+00 +3.614758613096e+01 -4.211012795016e+00 -5.197285873193e+01 -4.211012795016e+00 -5.197285873193e+01 -2.630720542847e+00 +3.615087538317e+01
 3.80000000e+00 -2.512026366281e+00 +3.520707404222e+01 -4.378100064506e+00 -5.296002690317e+01 -4.378100064506e+00 -5.296002690316e+01 -2.512446556659e+00 +3.521031701365e+01
 3.90000000e+00 -2.399882720707e+00 +3.428284289878e+01 -4.547164008821e+00 -5.392842775965e+01 -4.547164008821e+00 -5.392842775965e+01 -2.400295500758e+00 +3.428604275351e+01
 4.00000000e+00 -2.293485710811e+00 +3.337461103190e+01 -4.718170196418e+00 -5.487852041311e+01 -4.718170196418e+00 -5.487852041311e+01 -2.293892007289e+00 +3.337777099911e+01
 4.10000000e+00 -2.192487640703e+00 +3.248207806607e+01 -4.891091343481e+00 -5.581076522660e+01 -4.891091343481e+00 -5.581076522660e+01 -2.192888297922e+00 +3.248520141004e+01
 4.20000000e+00 -2.096566005540e+00 +3.160492876316e+01 -5.065907175474e+00 -5.672562198618e+01 -5.065907175474e+00 -5.672562198618e+01 -2.096961794402e+00 +3.160801876039e+01
 4.30000000e+00 -2.005421352479e+00 +3.074283637014e+01 -5.242604293178e+00 -5.762354828817e+01 -5.242604293178e+00 -5.762354828817e+01 -2.005812978540e+00 +3.074589629248e+01
 4.40000000e+00 -1.918775359024e+00 +2.989546553065e+01 -5.421176046634e+00 -5.850499812551e+01 -5.421176046634e+00 -5.850499812551e+01 -1.919163469664e+00 +2.989849863320e+01
 4.50000000e+00 -1.836369101735e+00 +2.906247481276e+01 -5.601622420014e+00 -5.937042065728e+01 -5.601622420014e+00 -5.937042065728e+01 -1.836754292519e+00 +2.906548432557e+01
 4.60000000e+00 -1.757961492404e+00 +2.824351889862e+01 -5.783949930095e+00 -6.022025914546e+01 -5.783949930095e+00 -6.022025914546e+01 -1.758344312712e+00 +2.824650802144e+01
 4.70000000e+00 -1.683327862123e+00 +2.743825047592e+01 -5.968171540701e+00 -6.105495004383e+01 -5.968171540701e+00 -6.105495004383e+01 -1.683708820109e+00 +2.744122237524e+01
 4.80000000e+00 -1.612258676442e+00 +2.664632186654e+01 -6.154306595257e+00 -6.187492222431e+01 -6.154306595257e+00 -6.187492222431e+01 -1.612638243398e+00 +2.664927967443e+01
 4.90000000e+00 -1.544558367152e+00 +2.586738642334e+01 -6.342380769421e+00 -6.268059632702e+01 -6.342380769421e+00 -6.268059632702e+01 -1.544936981346e+00 +2.587033323759e+01
 5.00000000e+00 -1.480044268153e+00 +2.510109972263e+01 -6.532426045663e+00 -6.347238422114e+01 -6.532426045663e+00 -6.347238422114e+01 -1.480422338192e+00 +2.510403860775e+01
 5.10000000e+00 -1.418545644468e+00 +2.434712057654e+01 -6.724480711565e+00 -6.425068856426e+01 -6.724480711565e+00 -6.425068856426e+01 -1.418923552264e+00 +2.435005456542e+01
 5.20000000e+00 -1.359902804894e+00 +2.360511188679e+01 -6.918589383627e+00 -6.501590244913e+01 -6.918589383627e+00 -6.501590244913e+01 -1.360280908266e+00 +2.360804398277e+01
 5.30000000e+00 -1.303966289890e+00 +2.287474135906e+01 -7.114803058392e+00 -6.576840912720e+01 -7.114803058392e+00 -6.576840912720e+01 -1.304344924863e+00 +2.287767453820e+01
 5.40000000e+00 -1.250596127340e+00 +2.215568209479e+01 -7.313179192763e+00 -6.650858179934e+01 -7.313179192763e+00 -6.650858179933e+01 -1.250975610181e+00 +2.215861930833e+01
 5.50000000e+00 -1.199661149676e+00 +2.144761307547e+01 -7.513781815570e+00 -6.723678346483e+01 -7.513781815570e+00 -6.723678346483e+01 -1.200041778701e+00 +2.145055725229e+01
 5.60000000e+00 -1.151038366561e+00 +2.075021955279e+01 -7.716681672560e+00 -6.795336682038e+01 -7.716681672560e+00 -6.795336682038e+01 -1.151420423751e+00 +2.075317360188e+01
 5.70000000e+00 -1.104612388008e+00 +2.006319335640e+01 -7.921956407275e+00 -6.865867420158e+01 -7.921956407275e+00 -6.865867420158e+01 -1.104996140450e+00 +2.006616016938e+01
 5.80000000e+00 -1.060274893323e+00 +1.938623312994e+01 -8.129690780533e+00 -6.935303755988e+01 -8.129690780533e+00 -6.935303755988e+01 -1.060660594511e+00 +1.938921558342e+01
 5.90000000e+00 -1.017924141785e+00 +1.871904450442e+01 -8.339976931620e+00 -7.003677846865e+01 -8.339976931620e+00 -7.003677846865e+01 -1.018312032782e+00 +1.872204546247e+01
 6.00000000e+00 -9.774645213515e-01 +1.806134021748e+01 -8.552914684671e+00 -7.071020815221e+01 -8.552914684671e+00 -7.071020815221e+01 -9.778548318531e-01 +1.806436253391e+01
 6.10000000e+00 -9.388061321060e-01 +1.741284018557e+01 -8.768611904278e+00 -7.137362753256e+01 -8.768611904278e+00 -7.137362753256e+01 -9.391990813898e-01 +1.741588670622e+01
 6.20000000e+00 -9.018644014357e-01 +1.677327153568e+01 -8.987184904903e+00 -7.202732728820e+01 -8.987184904903e+00 -7.202732728820e+01 -9.022601992319e-01 +1.677634510067e+01
 6.30000000e+00 -8.665597282639e-01 +1.614236860229e+01 -9.208758919384e+00 -7.267158792037e+01 -9.208758919384e+00 -7.267158792037e+01 -8.669585755415e-01 +1.614547204821e+01
 6.40000000e+00 -8.328171538885e-01 +1.551987289454e+01 -9.433468632644e+00 -7.330667982183e+01 -9.433468632644e+00 -7.330667982183e+01 -8.332192435718e-01 +1.552300905657e+01
 6.50000000e+00 -8.005660572251e-01 +1.490553303818e+01 -9.661458787629e+00 -7.393286334345e+01 -9.661458787629e+00 -7.393286334345e+01 -8.009715748456e-01 +1.490870475216e+01
 6.60000000e+00 -7.697398724480e-01 +1.429910469600e+01 -9.892884871658e+00 -7.455038885405e+01 -9.892884871658e+00 -7.455038885405e+01 -7.701489967378e-01 +1.430231480048e+01
 6.70000000e+00 -7.402758272117e-01 +1.370035047052e+01 -1.012791389264e+01 -7.515949678869e+01 -1.012791389264e+01 -7.515949678869e+01 -7.406887306446e-01 +1.370360180874e+01
 6.80000000e+00 -7.121146997955e-01 +1.310903979161e+01 -1.036672525620e+01 -7.576041768061e+01 -1.036672525620e+01 -7.576041768061e+01 -7.125315490802e-01 +1.311233521340e+01
 6.90000000e+00 -6.852005936630e-01 +1.252494879199e+01 -1.060951175655e+01 -7.635337217146e+01 -1.060951175655e+01 -7.635337217146e+01 -6.856215501934e-01 +1.252829115566e+01
 7.00000000e+00 -6.594807280623e-01 +1.194786017270e+01 -1.085648069612e+01 -7.693857099432e+01 -1.085648069612e+01 -7.693857099432e+01 -6.599059483278e-01 +1.195125234686e+01
 7.10000000e+00 -6.349052434087e-01 +1.137756306078e+01 -1.110785515165e+01 -7.751621492307e+01 -1.110785515165e+01 -7.751621492307e+01 -6.353348793697e-01 +1.138100792608e+01
 7.20000000e+00 -6.114270203043e-01 +1.081385286078e+01 -1.136387540728e+01 -7.808649468119e+01 -1.136387540728e+01 -7.808649468119e+01 -6.118612197346e-01 +1.081735331166e+01
 7.30000000e+00 -5.890015111431e-01 +1.025653110170e+01 -1.162480057935e+01 -7.864959080163e+01 -1.162480057935e+01 -7.864959080162e+01 -5.894404179428e-01 +1.026009004803e+01
 7.40000000e+00 -5.675865833403e-01 +9.705405280707e+00 -1.189091046149e+01 -7.920567342831e+01 -1.189091046149e+01 -7.920567342831e+01 -5.680303378226e-01 +9.709025649390e+00
 7.50000000e+00 -5.471423733054e-01 +9.160288704754e+00 -1.216250762476e+01 -7.975490204796e+01 -1.216250762476e+01 -7.975490204796e+01 -5.475911124588e-01 +9.163973441315e+00
 7.60000000e+00 -5.276311503504e-01 +8.621000331143e+00 -1.243991981346e+01 -8.029742513864e+01 -1.243991981346e+01 -8.029742513864e+01 -5.280850080786e-01 +8.624752401231e+00
 7.70000000e+00 -5.090171897914e-01 +8.087364607837e+00 -1.272350268601e+01 -8.083337971854e+01 -1.272350268601e+01 -8.083337971854e+01 -5.094762971338e-01 +8.091186998701e+00
 7.80000000e+00 -4.912666545628e-01 +7.559211314295e+00 -1.301364295987e+01 -8.136289077504e+01 -1.301364295987e+01 -8.136289077504e+01 -4.917311398963e-01 +7.563107036208e+00
 7.90000000e+00 -4.743474847165e-01 +7.036375403427e+00 -1.331076203191e+01 -8.188607054921e+01 -1.331076203191e+01 -8.188607054921e+01 -4.748174739414e-01 +7.040347491081e+00
 8.00000000e+00 -4.582292942319e-01 +6.518696845219e+00 -1.361532016128e+01 -8.240301764492e+01 -1.361532016128e+01 -8.240301764492e+01 -4.587049109424e-01 +6.522748359065e+00
 8.10000000e+00 -4.428832746046e-01 +6.006020472442e+00 -1.392782132060e+01 -8.291381592406e+01 -1.392782132060e+01 -8.291381592405e+01 -4.433646402460e-01 +6.010154500012e+00
 8.20000000e+00 -4.282821047262e-01 +5.498195828849e+00 -1.424881884623e+01 -8.341853313905e+01 -1.424881884623e+01 -8.341853313905e+01 -4.287693387401e-01 +5.502415486025e+00
 8.30000000e+00 -4.143998666057e-01 +4.995077020123e+00 -1.457892204866e+01 -8.391721924068e+01 -1.457892204866e+01 -8.391721924068e+01 -4.148930865635e-01 +4.999385452389e+00
 8.40000000e+00 -4.012119665156e-01 +4.496522567860e+00 -1.491880398407e+01 -8.440990428151e+01 -1.491880398407e+01 -8.440990428151e+01 -4.017112882425e-01 +4.500922951516e+00
 8.50000000e+00 -3.886950611818e-01 +4.002395266749e+00 -1.526921063867e+01 -8.489659581190e+01 -1.526921063867e+01 -8.489659581190e+01 -3.892005988711e-01 +4.006890810101e+00
 8.60000000e+00 -3.768269886616e-01 +3.512562045135e+00 -1.563097184400e+01 -8.537727563403e+01 -1.563097184400e+01 -8.537727563403e+01 -3.773388549815e-01 +3.517155989658e+00
 8.70000000e+00 -3.655867035855e-01 +3.026893829052e+00 -1.600501432807e+01 -8.585189573641e+01 -1.600501432807e+01 -8.585189573641e+01 -3.661050097776e-01 +3.031589450533e+00
 8.80000000e+00 -3.549542164588e-01 +2.545265409823e+00 -1.639237742274e+01 -8.632037317269e+01 -1.639237742274e+01 -8.632037317269e+01 -3.554790724300e-01 +2.550066019482e+00
 8.90000000e+00 -3.449105367448e-01 +2.067555315287e+00 -1.679423210169e+01 -8.678258356669e+01 -1.679423210169e+01 -8.678258356668e+01 -3.454420511531e-01 +2.072464260879e+00
 9.00000000e+00 -3.354376194712e-01 +1.593645684662e+00 -1.721190423241e+01 -8.723835281066e+01 -1.721190423241e+01 -8.723835281066e+01 -3.359758998062e-01 +1.598666351563e+00
 9.10000000e+00 -3.265183151212e-01 +1.123422147077e+00 -1.764690321170e+01 -8.768744635983e+01 -1.764690321170e+01 -8.768744635983e+01 -3.270634677789e-01 +1.128557959356e+00
 9.20000000e+00 -3.181363225864e-01 +6.567737037486e-01 -1.810095755139e+01 -8.812955528868e+01 -1.810095755139e+01 -8.812955528868e+01 -3.186884529396e-01 +6.620281252302e-01
 9.30000000e+00 -3.102761449781e-01 +1.935926137842e-01 -1.857605954012e+01 -8.856427792564e+01 -1.857605954012e+01 -8.856427792564e+01 -3.108353574428e-01 +1.989691490940e-01
 9.40000000e+00 -3.029230481056e-01 -2.662257164273e-01 -1.907452190689e+01 -8.899109536037e+01 -1.907452190689e+01 -8.899109536037e+01 -3.034894462031e-01 -2.607235208202e-01
 9.50000000e+00 -2.960630214453e-01 -7.227828402817e-01 -1.959905057460e+01 -8.940933832087e+01 -1.959905057460e+01 -8.940933832087e+01 -2.966367078615e-01 -7.171513950299e-01
 9.60000000e+00 -2.896827414380e-01 -1.176177374542e+00 -2.015283931512e+01 -8.981814167604e+01 -2.015283931512e+01 -8.981814167604e+01 -2.902638180788e-01 -1.170413046392e+00
 9.70000000e+00 -2.837695369603e-01 -1.626505099500e+00 -2.073969472271e+01 -9.021638083920e+01 -2.073969472271e+01 -9.021638083920e+01 -2.843581050046e-01 -1.620604210268e+00
 9.80000000e+00 -2.783113568315e-01 -2.073859055788e+00 -2.136420395590e+01 -9.060258110599e+01 -2.136420395590e+01 -9.060258110598e+01 -2.789075167813e-01 -2.067817881333e+00
 9.90000000e+00 -2.732967392231e-01 -2.518329637912e+00 -2.203196410029e+01 -9.097478549640e+01 -2.203196410029e+01 -9.097478549639e+01 -2.739005909513e-01 -2.512144407116e+00
 1.00000000e+01 -2.687147828495e-01 -2.960004684591e+00 -2.274990247050e+01 -9.133035715269e+01 -2.274990247050e+01 -9.133035715268e+01 -2.693264256455e-01 -2.953671578335e+00
 1.01000000e+01 -2.645551198269e-01 -3.398969565975e+00 -2.352673484556e+01 -9.166567513143e+01 -2.352673484556e+01 -9.166567513142e+01 -2.651746524404e-01 -3.392484716111e+00
 1.02000000e+01 -2.608078900954e-01 -3.835307267834e+00 -2.437363963741e+01 -9.197564992506e+01 -2.437363963741e+01 -9.197564992506e+01 -2.614354107775e-01 -3.828666756157e+00
 1.03000000e+01 -2.574637173033e-01 -4.269098472796e+00 -2.530528281015e+01 -9.225292051901e+01 -2.530528281015e+01 -9.225292051901e+01 -2.580993238475e-01 -4.262298330006e+00
 1.04000000e+01 -2.545136860671e-01 -4.700421638723e+00 -2.634143798390e+01 -9.248645887487e+01 -2.634143798390e+01 -9.248645887487e+01 -2.551574758470e-01 -4.693457843386e+00
 1.05000000e+01 -2.519493205177e-01 -5.129353074307e+00 -2.750967102452e+01 -9.265900043448e+01 -2.750967102452e+01 -9.265900043448e+01 -2.526013905243e-01 -5.122221551806e+00
 1.06000000e+01 -2.497625640549e-01 -5.555967011975e+00 -2.885005549086e+01 -9.274196151340e+01 -2.885005549086e+01 -9.274196151339e+01 -2.504230109327e-01 -5.548663633453e+00
 1.07000000e+01 -2.479457602377e-01 -5.980335678189e+00 -3.042409134007e+01 -9.268442079670e+01 -3.042409134007e+01 -9.268442079669e+01 -2.486146803188e-01 -5.972856259478e+00
 1.08000000e+01 -2.464916347387e-01 -6.402529361216e+00 -3.233329827524e+01 -9.238613694335e+01 -3.233329827524e+01 -9.238613694334e+01 -2.471691240767e-01 -6.394869661763e+00
 1.09000000e+01 -2.453932783008e-01 -6.822616476460e+00 -3.476356024534e+01 -9.161911801602e+01 -3.476356024534e+01 -9.161911801601e+01 -2.460794327028e-01 -6.814772198235e+00
 1.10000000e+01 -2.446441306340e-01 -7.240663629437e+00 -3.811428983016e+01 -8.973089212986e+01 -3.811428983016e+01 -8.973089212984e+01 -2.453390456926e-01 -7.232630415828e+00
 1.11000000e+01 -2.442379651977e-01 -7.656735676463e+00 -4.352289699396e+01 -8.383229747471e+01 -4.352289699396e+01 -8.383229747468e+01 -2.449417363214e-01 -7.648509111162e+00
 1.12000000e+01 -2.441688748156e-01 -8.070895783149e+00 -5.540069115245e+01 -3.098836499359e+01 -5.540069115244e+01 -3.098836499356e+01 -2.448815972583e-01 -8.062471389017e+00
 1.13000000e+01 -2.444312580735e-01 -8.483205480760e+00 -4.544389387814e+01 +6.479185201013e+01 -4.544389387814e+01 +6.479185201009e+01 -2.451530269639e-01 -8.474578718679e+00
 1.14000000e+01 -2.450198064553e-01 -8.893724720532e+00 -3.919714395369e+01 +7.317464464476e+01 -3.919714395369e+01 +7.317464464475e+01 -2.457507168253e-01 -8.884890988239e+00
 1.15000000e+01 -2.459294921741e-01 -9.302511926005e+00 -3.557419521610e+01 +7.555600062985e+01 -3.557419521610e+01 +7.555600062983e+01 -2.466696389860e-01 -9.293466556909e+00
 1.16000000e+01 -2.471555566573e-01 -9.709624043446e+00 -3.302960103577e+01 +7.650739211771e+01 -3.302960103577e+01 +7.650739211771e+01 -2.479050348314e-01 -9.700362305427e+00
 1.17000000e+01 -2.486934996499e-01 -1.011511659044e+01 -3.107094632159e+01 +7.690220859400e+01 -3.107094632159e+01 +7.690220859400e+01 -2.494524040908e-01 -1.010563368462e+01
 1.18000000e+01 -2.505390688998e-01 -1.051904370269e+01 -2.948028705891e+01 +7.702382013798e+01 -2.948028705891e+01 +7.702382013797e+01 -2.513074945219e-01 -1.050933476221e+01
 1.19000000e+01 -2.526882503918e-01 -1.092145817914e+01 -2.814216916106e+01 +7.699157969275e+01 -2.814216916106e+01 +7.699157969275e+01 -2.534662921453e-01 -1.091151826786e+01
 1.20000000e+01 -2.551372591012e-01 -1.132241152541e+01 -2.698807665233e+01 +7.686443296596e+01 -2.698807665233e+01 +7.686443296595e+01 -2.559250119966e-01 -1.131223563665e+01
 1.21000000e+01 -2.578825302360e-01 -1.172195399567e+01 -2.597402434657e+01 +7.667481971062e+01 -2.597402434657e+01 +7.667481971062e+01 -2.586800893688e-01 -1.171153705088e+01
 1.22000000e+01 -2.609207109428e-01 -1.212013463296e+01 -2.507009601043e+01 +7.644205353411e+01 -2.507009601043e+01 +7.644205353410e+01 -2.617281715172e-01 -1.210947148041e+01
 1.23000000e+01 -2.642486524484e-01 -1.251700130809e+01 -2.425502251341e+01 +7.617834199424e+01 -2.425502251341e+01 +7.617834199424e+01 -2.650661098012e-01 -1.250608672149e+01
 1.24000000e+01 -2.678634026169e-01 -1.291260075707e+01 -2.351314236604e+01 +7.589177260078e+01 -2.351314236604e+01 +7.589177260078e+01 -2.686909522402e-01 -1.290142943417e+01
 1.25000000e+01 -2.717621988954e-01 -1.330697861715e+01 -2.283258989487e+01 +7.558791025501e+01 -2.283258989487e+01 +7.558791025501e+01 -2.725999364598e-01 -1.329554517835e+01
 1.26000000e+01 -2.759424616322e-01 -1.370017946164e+01 -2.220416050016e+01 +7.527070517838e+01 -2.220416050016e+01 +7.527070517838e+01 -2.767904830089e-01 -1.368847844855e+01
 1.27000000e+01 -2.804017877434e-01 -1.409224683337e+01 -2.162057047064e+01 +7.494303520622e+01 -2.162057047064e+01 +7.494303520622e+01 -2.812601890263e-01 -1.408027270729e+01
 1.28000000e+01 -2.851379447127e-01 -1.448322327694e+01 -2.107595742685e+01 +7.460704340799e+01 -2.107595742685e+01 +7.460704340799e+01 -2.860068222400e-01 -1.447097041743e+01
 1.29000000e+01 -2.901488649049e-01 -1.487315036986e+01 -2.056553324961e+01 +7.426435581191e+01 -2.056553324961e+01 +7.426435581191e+01 -2.910283152804e-01 -1.486061307314e+01
 1.30000000e+01 -2.954326401784e-01 -1.526206875247e+01 -2.008533685226e+01 +7.391622612459e+01 -2.008533685226e+01 +7.391622612459e+01 -2.963227602921e-01 -1.524924122989e+01
 1.31000000e+01 -3.009875167793e-01 -1.565001815682e+01 -1.963205420394e+01 +7.356363448822e+01 -1.963205420394e+01 +7.356363448822e+01 -3.018884038286e-01 -1.563689453324e+01
 1.32000000e+01 -3.068118905053e-01 -1.603703743447e+01 -1.920288478383e+01 +7.320735644603e+01 -1.920288478383e+01 +7.320735644603e+01 -3.077236420146e-01 -1.602361174665e+01
 1.33000000e+01 -3.129043021232e-01 -1.642316458329e+01 -1.879544079721e+01 +7.284801209613e+01 -1.879544079721e+01 +7.284801209613e+01 -3.138270159640e-01 -1.640943077820e+01
 1.34000000e+01 -3.192634330289e-01 -1.680843677331e+01 -1.840766995972e+01 +7.248610176800e+01 -1.840766995972e+01 +7.248610176800e+01 -3.201972074394e-01 -1.679438870643e+01
 1.35000000e+01 -3.258881011377e-01 -1.719289037152e+01 -1.803779553140e+01 +7.212203234236e+01 -1.803779553140e+01 +7.212203234236e+01 -3.268330347420e-01 -1.717852180511e+01
 1.36000000e+01 -3.327772569927e-01 -1.757656096591e+01 -1.768426917418e+01 +7.175613695590e+01 -1.768426917418e+01 +7.175613695590e+01 -3.337334488193e-01 -1.756186556721e+01
 1.37000000e+01 -3.399299800814e-01 -1.795948338854e+01 -1.734573347689e+01 +7.138868995112e+01 -1.734573347689e+01 +7.138868995112e+01 -3.408975295820e-01 -1.794445472794e+01
 1.38000000e+01 -3.473454753505e-01 -1.834169173775e+01 -1.702099186268e+01 +7.101991835699e+01 -1.702099186268e+01 +7.101991835699e+01 -3.483244824178e-01 -1.832632328696e+01
 1.39000000e+01 -3.550230699086e-01 -1.872321939961e+01 -1.670898419967e+01 +7.065001080358e+01 -1.670898419967e+01 +7.065001080358e+01 -3.560136348944e-01 -1.870750452973e+01
 1.40000000e+01 -3.629622099094e-01 -1.910409906857e+01 -1.640876686529e+01 +7.027912451486e+01 -1.640876686529e+01 +7.027912451486e+01 -3.639644336414e-01 -1.908803104813e+01
