#  GHZ S DB R 50.0
 1.00000000e-02 -2.697435226327e+01 +3.273233120164e+00 -3.974795663030e-01 -1.848833387169e-01 -3.974795663026e-01 -1.848833387120e-01 -2.697437601872e+01 +3.274974662067e+00
 2.00000000e-02 -2.692986223140e+01 +6.469085477727e+00 -3.977118671173e-01 -3.671337659927e-01 -3.977118671174e-01 -3.671337659897e-01 -2.692984465082e+01 +6.470707279734e+00
 1.00000000e-01 -2.571002750164e+01 +2.927245859971e+01 -4.042772971968e-01 -1.826510790859e+00 -4.042772971968e-01 -1.826510790858e+00 -2.570934708128e+01 +2.927378997254e+01
 2.00000000e-01 -2.320425457900e+01 +4.742595181964e+01 -4.233681151457e-01 -3.629586964563e+00 -4.233681151457e-01 -3.629586964563e+00 -2.320326924939e+01 +4.742080316906e+01
 3.00000000e-01 -2.077254133158e+01 +5.703328051000e+01 -4.520344436742e-01 -5.399634795576e+00 -4.520344436742e-01 -5.399634795576e+00 -2.077208839885e+01 +5.702284520748e+01
 4.00000000e-01 -1.869818623784e+01 +6.205748028618e+01 -4.880939467975e-01 -7.138171403208e+00 -4.880939467975e-01 -7.138171403208e+00 -1.869847265814e+01 +6.204517110256e+01
 5.00000000e-01 -1.695904592400e+01 +6.463434619897e+01 -5.304581383945e-01 -8.850475946044e+00 -5.304581383945e-01 -8.850475946044e+00 -1.695995778871e+01 +6.462247497617e+01
 6.00000000e-01 -1.548935970521e+01 +6.582902064441e+01 -5.787689609357e-01 -1.054072814801e+01 -5.787689609357e-01 -1.054072814801e+01 -1.549070893499e+01 +6.581869563317e+01
 7.00000000e-01 -1.423090913012e+01 +6.619750398318e+01 -6.329633614149e-01 -1.221101126227e+01 -6.329633614150e-01 -1.221101126227e+01 -1.423252578597e+01 +6.618908148668e+01
 8.00000000e-01 -1.313909727770e+01 +6.604762415971e+01 -6.930348606934e-01 -1.386182529931e+01 -6.930348606934e-01 -1.386182529931e+01 -1.314085167313e+01 +6.604106811036e+01
 9.00000000e-01 -1.218074883582e+01 +6.555955205736e+01 -7.589441871002e-01 -1.549276589357e+01 -7.589441871002e-01 -1.549276589357e+01 -1.218254968417e+01 +6.555464833591e+01
 1.00000000e+00 -1.133112100052e+01 +6.484414856555e+01 -8.305998060517e-01 -1.710300555431e+01 -8.305998060518e-01 -1.710300555430e+01 -1.133290750233e+01 +6.484062040341e+01
 1.10000000e+00 -1.057151012327e+01 +6.397270461401e+01 -9.078634697606e-01 -1.869157599512e+01 -9.078634697606e-01 -1.869157599512e+01 -1.057324391539e+01 +6.397027084849e+01
 1.20000000e+00 -9.887535952849e+00 +6.299285829837e+01 -9.905618697695e-01 -2.025751869783e+01 -9.905618697695e-01 -2.025751869783e+01 -9.889194507603e+00 +6.299126041419e+01
 1.30000000e+00 -9.267947548975e+00 +6.193750914100e+01 -1.078497827650e+00 -2.179995923340e+01 -1.078497827650e+00 -2.179995923340e+01 -9.269519186990e+00 +6.193652175866e+01
 1.40000000e+00 -8.703794064887e+00 +6.083002359011e+01 -1.171459322360e+00 -2.331814000331e+01 -1.171459322360e+00 -2.331814000331e+01 -8.705274338881e+00 +6.082945646850e+01
 1.50000000e+00 -8.187843692304e+00 +5.968739340096e+01 -1.269226308817e+00 -2.481143103888e+01 -1.269226308817e+00 -2.481143103888e+01 -8.189232831228e+00 +5.968708935243e+01
 1.60000000e+00 -7.714170860578e+00 +5.852221989083e+01 -1.371575728414e+00 -2.627932955254e+01 -1.371575728414e+00 -2.627932955254e+01 -7.715471997579e+00 +5.852205097876e+01
 1.70000000e+00 -7.277858376888e+00 +5.734400049585e+01 -1.478285150652e+00 -2.772145396643e+01 -1.478285150652e+00 -2.772145396643e+01 -7.279076341512e+00 +5.734386375944e+01
 1.80000000e+00 -6.874779067647e+00 +5.615998701820e+01 -1.589135410446e+00 -2.913753545397e+01 -1.589135410446e+00 -2.913753545397e+01 -6.875919576899e+00 +5.615980034455e+01
 1.90000000e+00 -6.501433211236e+00 +5.497577299081e+01 -1.703912516668e+00 -3.052740858335e+01 -1.703912516668e+00 -3.052740858335e+01 -6.502502338552e+00 +5.497547141078e+01
 2.00000000e+00 -6.154825720501e+00 +5.379570501405e+01 -1.822409032168e+00 -3.189100187532e+01 -1.822409032168e+00 -3.189100187532e+01 -6.155829556026e+00 +5.379523751392e+01
 2.10000000e+00 -5.832372074191e+00 +5.262317685581e+01 -1.944425068130e+00 -3.322832867037e+01 -1.944425068130e+00 -3.322832867037e+01 -5.833316515194e+00 +5.262250370262e+01
 2.20000000e+00 -5.531825343698e+00 +5.146084371457e+01 -2.069768993944e+00 -3.453947847976e+01 -2.069768993944e+00 -3.453947847976e+01 -5.532715972467e+00 +5.145993424935e+01
 2.30000000e+00 -5.251218912123e+00 +5.031078101033e+01 -2.198257934060e+00 -3.582460888019e+01 -2.198257934060e+00 -3.582460888019e+01 -5.252060931869e+00 +5.030961184686e+01
 2.40000000e+00 -4.988821016746e+00 +4.917460392430e+01 -2.329718102421e+00 -3.708393795615e+01 -2.329718102421e+00 -3.708393795615e+01 -4.989619225334e+00 +4.917315748936e+01
 2.50000000e+00 -4.743098306378e+00 +4.805355870107e+01 -2.463985010639e+00 -3.831773726939e+01 -2.463985010639e+00 -3.831773726939e+01 -4.743857094176e+00 +4.805182205688e+01
 2.60000000e+00 -4.512686348268e+00 +4.694859332538e+01 -2.600903576032e+00 -3.952632532660e+01 -2.600903576032e+00 -3.952632532660e+01 -4.513409710871e+00 +4.694655722241e+01
 2.70000000e+00 -4.296365547370e+00 +4.586041291965e+01 -2.740328148914e+00 -4.071006151628e+01 -2.740328148914e+00 -4.071006151628e+01 -4.297057107029e+00 +4.585807103623e+01
 2.80000000e+00 -4.093041320866e+00 +4.478952367225e+01 -2.882122473859e+00 -4.186934048841e+01 -2.882122473859e+00 -4.186934048841e+01 -4.093704352513e+00 +4.478687200492e+01
 2.90000000e+00 -3.901727647856e+00 +4.373626804807e+01 -3.026159596608e+00 -4.300458695414e+01 -3.026159596608e+00 -4.300458695414e+01 -3.902365107078e+00 +4.373330442320e+01
 3.00000000e+00 -3.721533318403e+00 +4.270085329273e+01 -3.172321726133e+00 -4.411625088593e+01 -3.172321726133e+00 -4.411625088593e+01 -3.722147869626e+00 +4.269757697569e+01
 3.10000000e+00 -3.551650358296e+00 +4.168337471829e+01 -3.320500059949e+00 -4.520480310086e+01 -3.320500059949e+00 -4.520480310086e+01 -3.552244402125e+00 +4.167978610105e+01
 3.20000000e+00 -3.391344220495e+00 +4.068383488271e+01 -3.470594579702e+00 -4.627073121107e+01 -3.470594579702e+00 -4.627073121107e+01 -3.391919919567e+00 +4.067993523417e+01
 3.30000000e+00 -3.239945421259e+00 +3.970215950320e+01 -3.622513823273e+00 -4.731453592608e+01 -3.622513823273e+00 -4.731453592608e+01 -3.240504724268e+00 +3.969795077020e+01
 3.40000000e+00 -3.096842365658e+00 +3.873821074539e+01 -3.776174639015e+00 -4.833672769157e+01 -3.776174639015e+00 -4.833672769157e+01 -3.097387029403e+00 +3.873369539410e+01
 3.50000000e+00 -2.961475158663e+00 +3.779179838281e+01 -3.931501927165e+00 -4.933782364891e+01 -3.931501927165e+00 -4.933782364891e+01 -2.962006768085e+00 +3.778697927266e+01
 3.60000000e+00 -2.833330238070e+00 +3.686268921226e+01 -4.088428373004e+00 -5.031834489923e+01 -4.088428373004e+00 -5.031834489923e+01 -2.833850224351e+00 +3.685756949583e+01
 3.70000000e+00 -2.711935696886e+00 +3.595061502849e+01 -4.246894175846e+00 -5.127881405516e+01 -4.246894175846e+00 -5.127881405516e+01 -2.712445353692e+00 +3.594519807230e+01
 3.80000000e+00 -2.596857187500e+00 +3.505527939921e+01 -4.406846777503e+00 -5.221975306294e+01 -4.406846777503e+00 -5.221975306294e+01 -2.597357685531e+00 +3.504956872108e+01
 3.90000000e+00 -2.487694319580e+00 +3.417636343417e+01 -4.568240593451e+00 -5.314168127726e+01 -4.568240593451e+00 -5.314168127726e+01 -2.488186719545e+00 +3.417036265389e+01
 4.00000000e+00 -2.384077479227e+00 +3.331353070502e+01 -4.731036749523e+00 -5.404511377099e+01 -4.731036749523e+00 -5.404511377099e+01 -2.384562743411e+00 +3.330724350568e+01
 4.10000000e+00 -2.285665009439e+00 +3.246643144454e+01 -4.895202826569e+00 -5.493055986200e+01 -4.895202826569e+00 -5.493055986200e+01 -2.286144012007e+00 +3.245986154234e+01
 4.20000000e+00 -2.192140702036e+00 +3.163470613114e+01 -5.060712615178e+00 -5.579852183956e+01 -5.060712615178e+00 -5.579852183956e+01 -2.192614238202e+00 +3.162785725193e+01
 4.30000000e+00 -2.103211559322e+00 +3.081798854675e+01 -5.227545882252e+00 -5.664949387306e+01 -5.227545882252e+00 -5.664949387306e+01 -2.103680353520e+00 +3.081086440811e+01
 4.40000000e+00 -2.018605790450e+00 +3.001590838231e+01 -5.395688150910e+00 -5.748396108656e+01 -5.395688150910e+00 -5.748396108656e+01 -2.019070503615e+00 +3.000851267987e+01
 4.50000000e+00 -1.938071012842e+00 +2.922809345313e+01 -5.565130494977e+00 -5.830239878304e+01 -5.565130494977e+00 -5.830239878304e+01 -1.938532248908e+00 +2.922042985047e+01
 4.60000000e+00 -1.861372633520e+00 +2.845417157743e+01 -5.735869349066e+00 -5.910527180348e+01 -5.735869349066e+00 -5.910527180348e+01 -1.861830945221e+00 +2.844624369874e+01
 4.70000000e+00 -1.788292388860e+00 +2.769377216338e+01 -5.907906335100e+00 -5.989303400605e+01 -5.907906335099e+00 -5.989303400605e+01 -1.788748282921e+00 +2.768558358843e+01
 4.80000000e+00 -1.718627024363e+00 +2.694652754362e+01 -6.081248105944e+00 -6.066612785236e+01 -6.081248105944e+00 -6.066612785236e+01 -1.719080966144e+00 +2.693808180458e+01
 4.90000000e+00 -1.652187098577e+00 +2.621207409102e+01 -6.255906206724e+00 -6.142498408793e+01 -6.255906206724e+00 -6.142498408793e+01 -1.652639516234e+00 +2.620337467070e+01
 5.00000000e+00 -1.588795897442e+00 +2.549005314461e+01 -6.431896954275e+00 -6.217002150541e+01 -6.431896954275e+00 -6.217002150541e+01 -1.589247185661e+00 +2.548110347595e+01
 5.10000000e+00 -1.528288447138e+00 +2.478011177107e+01 -6.609241335145e+00 -6.290164677970e+01 -6.609241335145e+00 -6.290164677970e+01 -1.528738970479e+00 +2.477091523756e+01
 5.20000000e+00 -1.470510615027e+00 +2.408190338367e+01 -6.787964922501e+00 -6.362025436524e+01 -6.787964922501e+00 -6.362025436524e+01 -1.470960710928e+00 +2.407246332053e+01
 5.30000000e+00 -1.415318289585e+00 +2.339508823783e+01 -6.968097812295e+00 -6.432622644618e+01 -6.968097812295e+00 -6.432622644618e+01 -1.415768271060e+00 +2.338540793385e+01
 5.40000000e+00 -1.362576631319e+00 +2.271933382001e+01 -7.149674579038e+00 -6.501993293136e+01 -7.149674579038e+00 -6.501993293136e+01 -1.363026789376e+00 +2.270941651978e+01
 5.50000000e+00 -1.312159387609e+00 +2.205431514448e+01 -7.332734251594e+00 -6.570173148642e+01 -7.332734251594e+00 -6.570173148642e+01 -1.312609993425e+00 +2.204416405103e+01
 5.60000000e+00 -1.263948265238e+00 +2.139971497074e+01 -7.517320309399e+00 -6.637196759614e+01 -7.517320309399e+00 -6.637196759614e+01 -1.264399572103e+00 +2.138933324840e+01
 5.70000000e+00 -1.217832355071e+00 +2.075522395269e+01 -7.703480699666e+00 -6.703097465080e+01 -7.703480699666e+00 -6.703097465080e+01 -1.218284600138e+00 +2.074461473021e+01
 5.80000000e+00 -1.173707603956e+00 +2.012054072942e+01 -7.891267876143e+00 -6.767907405063e+01 -7.891267876143e+00 -6.767907405063e+01 -1.174161009807e+00 +2.010970710309e+01
 5.90000000e+00 -1.131476329461e+00 +1.949537196591e+01 -8.080738860182e+00 -6.831657532333e+01 -8.080738860182e+00 -6.831657532333e+01 -1.131931105516e+00 +1.948431700286e+01
 6.00000000e+00 -1.091046773526e+00 +1.887943235137e+01 -8.271955324954e+00 -6.894377624954e+01 -8.271955324954e+00 -6.894377624954e+01 -1.091503117299e+00 +1.886815909280e+01
 6.10000000e+00 -1.052332691498e+00 +1.827244456140e+01 -8.464983703848e+00 -6.956096299189e+01 -8.464983703848e+00 -6.956096299189e+01 -1.052790789727e+00 +1.826095602586e+01
 6.20000000e+00 -1.015252973417e+00 +1.767413918997e+01 -8.659895324237e+00 -7.016841022340e+01 -8.659895324237e+00 -7.016841022340e+01 -1.015713003079e+00 +1.766243837653e+01
 6.30000000e+00 -9.797312946949e-01 +1.708425465588e+01 -8.856766568035e+00 -7.076638125121e+01 -8.856766568035e+00 -7.076638125121e+01 -9.801934239083e-01 +1.707234454728e+01
 6.40000000e+00 -9.456957936415e-01 +1.650253708823e+01 -9.055679060688e+00 -7.135512813174e+01 -9.055679060688e+00 -7.135512813174e+01 -9.461601824859e-01 +1.649042065395e+01
 6.50000000e+00 -9.130787735320e-01 +1.592874019451e+01 -9.256719890513e+00 -7.193489177365e+01 -9.256719890513e+00 -7.193489177365e+01 -9.135455747758e-01 +1.591642039369e+01
 6.60000000e+00 -8.818164271245e-01 +1.536262511461e+01 -9.459981860623e+00 -7.250590202481e+01 -9.459981860623e+00 -7.250590202481e+01 -8.822857868820e-01 +1.535010489896e+01
 6.70000000e+00 -8.518485817453e-01 +1.480396026367e+01 -9.665563776006e+00 -7.306837773943e+01 -9.665563776006e+00 -7.306837773943e+01 -8.523206400664e-01 +1.479124258018e+01
 6.80000000e+00 -8.231184632321e-01 +1.425252116604e+01 -9.873570768751e+00 -7.362252682165e+01 -9.873570768751e+00 -7.362252682165e+01 -8.235933546323e-01 +1.423960895963e+01
 6.90000000e+00 -7.955724771800e-01 +1.370809028261e+01 -1.008411466486e+01 -7.416854624125e+01 -1.008411466486e+01 -7.416854624125e+01 -7.960503311183e-01 +1.369498649868e+01
 7.00000000e+00 -7.691600060842e-01 +1.317045683327e+01 -1.029731439660e+01 -7.470662201725e+01 -1.029731439660e+01 -7.470662201725e+01 -7.696409473929e-01 +1.315716442013e+01
 7.10000000e+00 -7.438332210937e-01 +1.263941661616e+01 -1.051329646500e+01 -7.523692916444e+01 -1.051329646500e+01 -7.523692916444e+01 -7.443173703663e-01 +1.262593852734e+01
 7.20000000e+00 -7.195469072092e-01 +1.211477182484e+01 -1.073219545777e+01 -7.575963159762e+01 -1.073219545777e+01 -7.575963159762e+01 -7.200343811507e-01 +1.210111102137e+01
 7.30000000e+00 -6.962583008614e-01 +1.159633086486e+01 -1.095415462869e+01 -7.627488198739e+01 -1.095415462869e+01 -7.627488198739e+01 -6.967492126040e-01 +1.158249031734e+01
 7.40000000e+00 -6.739269388951e-01 +1.108390817033e+01 -1.117932654554e+01 -7.678282156078e+01 -1.117932654554e+01 -7.678282156078e+01 -6.744213982842e-01 +1.106989086107e+01
 7.50000000e+00 -6.525145180751e-01 +1.057732402169e+01 -1.140787381481e+01 -7.728357983871e+01 -1.140787381481e+01 -7.728357983871e+01 -6.530126319268e-01 +1.056313294659e+01
 7.60000000e+00 -6.319847642993e-01 +1.007640436508e+01 -1.163996989240e+01 -7.777727430131e+01 -1.163996989240e+01 -7.777727430131e+01 -6.324866366343e-01 +1.006204253556e+01
 7.70000000e+00 -6.123033107787e-01 +9.580980634021e+00 -1.187579999152e+01 -7.826400997018e+01 -1.187579999152e+01 -7.826400997018e+01 -6.128090430328e-01 +9.566451078856e+00
 7.80000000e+00 -5.934375845029e-01 +9.090889573965e+00 -1.211556210038e+01 -7.874387889534e+01 -1.211556210038e+01 -7.874387889534e+01 -5.939472757175e-01 +9.076195340978e+00
 7.90000000e+00 -5.753567003676e-01 +8.605973069924e+00 -1.235946812466e+01 -7.921695953169e+01 -1.235946812466e+01 -7.921695953169e+01 -5.758704473620e-01 +8.591117227692e+00
 8.00000000e+00 -5.580313623937e-01 +8.126077977661e+00 -1.260774517213e+01 -7.968331598756e+01 -1.260774517213e+01 -7.968331598756e+01 -5.585492599198e-01 +8.111063617121e+00
 8.10000000e+00 -5.414337715103e-01 +7.651055958621e+00 -1.286063699983e+01 -8.014299712395e+01 -1.286063699983e+01 -8.014299712395e+01 -5.419559123928e-01 +7.635886194620e+00
 8.20000000e+00 -5.255375394219e-01 +7.180763318815e+00 -1.311840564802e+01 -8.059603547917e+01 -1.311840564802e+01 -8.059603547917e+01 -5.260640146841e-01 +7.165441291612e+00
 8.30000000e+00 -5.103176081146e-01 +6.715060851814e+00 -1.338133328924e+01 -8.104244598806e+01 -1.338133328924e+01 -8.104244598806e+01 -5.108485070916e-01 +6.699589728516e+00
 8.40000000e+00 -4.957501745933e-01 +6.253813685952e+00 -1.364972432632e+01 -8.148222445833e+01 -1.364972432632e+01 -8.148222445833e+01 -4.962855850332e-01 +6.238196661910e+00
 8.50000000e+00 -4.818126204746e-01 +5.796891135815e+00 -1.392390777946e+01 -8.191534575858e+01 -1.392390777946e+01 -8.191534575858e+01 -4.823526286297e-01 +5.781131435964e+00
 8.60000000e+00 -4.684834460887e-01 +5.344166558046e+00 -1.420424001059e+01 -8.234176166184e+01 -1.420424001059e+01 -8.234176166184e+01 -4.690281367967e-01 +5.328267438200e+00
 8.70000000e+00 -4.557422087717e-01 +4.895517211492e+00 -1.449110784273e+01 -8.276139827564e+01 -1.449110784273e+01 -8.276139827564e+01 -4.562916655283e-01 +4.879481959593e+00
 8.80000000e+00 -4.435694650530e-01 +4.450824121667e+00 -1.478493214420e+01 -8.317415297281e+01 -1.478493214420e+01 -8.317415297281e+01 -4.441237700765e-01 +4.434656058994e+00
 8.90000000e+00 -4.319467164668e-01 +4.009971949514e+00 -1.508617196218e+01 -8.357989071598e+01 -1.508617196218e+01 -8.357989071598e+01 -4.325059507553e-01 +3.993674431853e+00
 9.00000000e+00 -4.208563587355e-01 +3.572848864422e+00 -1.539532930922e+01 -8.397843964127e+01 -1.539532930922e+01 -8.397843964127e+01 -4.214206021187e-01 +3.556425283186e+00
 9.10000000e+00 -4.102816340944e-01 +3.139346421420e+00 -1.571295472918e+01 -8.436958573101e+01 -1.571295472918e+01 -8.436958573101e+01 -4.108509652789e-01 +3.122800204745e+00
 9.20000000e+00 -4.002065865421e-01 +2.709359442506e+00 -1.603965379933e+01 -8.475306635876e+01 -1.603965379933e+01 -8.475306635876e+01 -4.007810831518e-01 +2.692694056299e+00
 9.30000000e+00 -3.906160198185e-01 +2.282785902002e+00 -1.637609476293e+01 -8.512856242853e+01 -1.637609476293e+01 -8.512856242853e+01 -3.911957584309e-01 +2.266004850968e+00
 9.40000000e+00 -3.814954579259e-01 +1.859526815877e+00 -1.672301753588e+01 -8.549568874812e+01 -1.672301753588e+01 -8.549568874812e+01 -3.820805141047e-01 +1.842633644503e+00
 9.50000000e+00 -3.728311080243e-01 +1.439486134924e+00 -1.708124439384e+01 -8.585398216713e+01 -1.708124439384e+01 -8.585398216713e+01 -3.734215563485e-01 +1.422484428435e+00
 9.60000000e+00 -3.646098255417e-01 +1.022570641698e+00 -1.745169272984e+01 -8.620288686095e+01 -1.745169272984e+01 -8.620288686095e+01 -3.652057396325e-01 +1.005464026988e+00
 9.70000000e+00 -3.568190813548e-01 +6.086898511286e-01 -1.783539038141e+01 -8.654173593812e+01 -1.783539038141e+01 -8.654173593812e+01 -3.574205338999e-01 +5.914819976644e-01
 9.80000000e+00 -3.494469309018e-01 +1.977559146856e-01 -1.823349417282e+01 -8.686972826556e+01 -1.823349417282e+01 -8.686972826556e+01 -3.500539936786e-01 +1.804505353815e-01
 9.90000000e+00 -3.424819851050e-01 -2.103164719955e-01 -1.864731251490e+01 -8.718589900835e+01 -1.864731251490e+01 -8.718589900835e+01 -3.430947290019e-01 -2.277156199206e-01
 1.00000000e+01 -3.359133829821e-01 -6.156101581344e-01 -1.907833317397e+01 -8.748908181559e+01 -1.907833317397e+01 -8.748908181559e+01 -3.365318780199e-01 -6.330992723228e-01
 1.01000000e+01 -3.297307658420e-01 -1.018205623580e+00 -1.952825769296e+01 -8.777785976714e+01 -1.952825769296e+01 -8.777785976714e+01 -3.303550811940e-01 -1.035780855720e+00
 1.02000000e+01 -3.239242529597e-01 -1.418181061443e+00 -1.999904446775e+01 -8.805050099844e+01 -1.999904446775e+01 -8.805050099844e+01 -3.245544569727e-01 -1.435838516467e+00
 1.03000000e+01 -3.184844186396e-01 -1.815612457684e+00 -2.049296322093e+01 -8.830487313391e+01 -2.049296322093e+01 -8.830487313391e+01 -3.191205788546e-01 -1.833348192987e+00
 1.04000000e+01 -3.134022705792e-01 -2.210573667774e+00 -2.101266468190e+01 -8.853832794278e+01 -2.101266468190e+01 -8.853832794278e+01 -3.140444537532e-01 -2.228383692434e+00
 1.05000000e+01 -3.086692294501e-01 -2.603136490505e+00 -2.156127084974e+01 -8.874754341557e+01 -2.156127084974e+01 -8.874754341557e+01 -3.093175015785e-01 -2.621016764527e+00
 1.06000000e+01 -3.042771096235e-01 -2.993370739079e+00 -2.214249356253e+01 -8.892830376599e+01 -2.214249356253e+01 -8.892830376599e+01 -3.049315359638e-01 -3.011317172632e+00
 1.07000000e+01 -3.002181009667e-01 -3.381344309542e+00 -2.276079268698e+01 -8.907518696414e+01 -2.276079268698e+01 -8.907518696414e+01 -3.008787460639e-01 -3.399352762211e+00
 1.08000000e+01 -2.964847516472e-01 -3.767123246683e+00 -2.342159086477e+01 -8.918111115178e+01 -2.342159086477e+01 -8.918111115178e+01 -2.971516793607e-01 -3.785189526721e+00
 1.09000000e+01 -2.930699518819e-01 -4.150771807472e+00 -2.413157078701e+01 -8.923665972816e+01 -2.413157078701e+01 -8.923665972816e+01 -2.937432254143e-01 -4.168891671053e+00
 1.10000000e+01 -2.899669185744e-01 -4.532352522141e+00 -2.489909591863e+01 -8.922904832828e+01 -2.489909591863e+01 -8.922904832827e+01 -2.906466005022e-01 -4.550521672610e+00
 1.11000000e+01 -2.871691807872e-01 -4.911926252982e+00 -2.573482115056e+01 -8.914049128506e+01 -2.573482115056e+01 -8.914049128506e+01 -2.878553330942e-01 -4.930140340104e+00
 1.12000000e+01 -2.846705659991e-01 -5.289552250958e+00 -2.665260517648e+01 -8.894551835256e+01 -2.665260517648e+01 -8.894551835255e+01 -2.853632501112e-01 -5.307806870158e+00
 1.13000000e+01 -2.824651871007e-01 -5.665288210205e+00 -2.767092013996e+01 -8.860636454429e+01 -2.767092013996e+01 -8.860636454429e+01 -2.831644639243e-01 -5.683578901803e+00
 1.14000000e+01 -2.805474300852e-01 -6.039190320499e+00 -2.881511617327e+01 -8.806461080138e+01 -2.881511617327e+01 -8.806461080138e+01 -2.812533600471e-01 -6.057512568931e+00
 1.15000000e+01 -2.789119423936e-01 -6.411313317774e+00 -3.012122831771e+01 -8.722499568667e+01 -3.012122831771e+01 -8.722499568667e+01 -2.796245854842e-01 -6.429662550803e+00
 1.16000000e+01 -2.775536218760e-01 -6.781710532762e+00 -3.164271983811e+01 -8.592138541033e+01 -3.164271983811e+01 -8.592138541033e+01 -2.782730376949e-01 -6.800082120672e+00
 1.17000000e+01 -2.764676063339e-01 -7.150433937822e+00 -3.346312572145e+01 -8.383733049986e+01 -3.346312572145e+01 -8.383733049986e+01 -2.771938541383e-01 -7.168823192599e+00
 1.18000000e+01 -2.756492636102e-01 -7.517534192033e+00 -3.572088100386e+01 -8.029326795279e+01 -3.572088100386e+01 -8.029326795279e+01 -2.763824023657e-01 -7.535936366524e+00
 1.19000000e+01 -2.750941821948e-01 -7.883060684619e+00 -3.865523739849e+01 -7.356265075472e+01 -3.865523739849e+01 -7.356265075472e+01 -2.758342706297e-01 -7.901470971667e+00
 1.20000000e+01 -2.747981623187e-01 -8.247061576760e+00 -4.260083550185e+01 -5.816718836815e+01 -4.260083550185e+01 -5.816718836814e+01 -2.755452589802e-01 -8.265475108324e+00
 1.21000000e+01 -2.747572075065e-01 -8.609583841863e+00 -4.638271385422e+01 -1.737927903510e+01 -4.638271385422e+01 -1.737927903510e+01 -2.755113708202e-01 -8.627995688106e+00
 1.22000000e+01 -2.749675165638e-01 -8.970673304348e+00 -4.401403097898e+01 +3.264155589571e+01 -4.401403097898e+01 +3.264155589570e+01 -2.757288048959e-01 -8.989078472700e+00
 1.23000000e+01 -2.754254759753e-01 -9.330374677000e+00 -3.981972222006e+01 +5.337075660811e+01 -3.981972222006e+01 +5.337075660811e+01 -2.761939476972e-01 -9.348768111194e+00
 1.24000000e+01 -2.761276526891e-01 -9.688731596954e+00 -3.665657640776e+01 +6.183136295797e+01 -3.665657640776e+01 +6.183136295797e+01 -2.769033662449e-01 -9.707108176028e+00
 1.25000000e+01 -2.770707872686e-01 -1.004578666035e+01 -3.427007329928e+01 +6.608605409331e+01 -3.427007329928e+01 +6.608605409330e+01 -2.778538012453e-01 -1.006414119763e+01
 1.26000000e+01 -2.782517873909e-01 -1.040158145575e+01 -3.238036891166e+01 +6.852757328181e+01 -3.238036891166e+01 +6.852757328181e+01 -2.790421605907e-01 -1.041990869775e+01
 1.27000000e+01 -2.796677216722e-01 -1.075615659625e+01 -3.082427624865e+01 +7.003998662756e+01 -3.082427624865e+01 +7.003998662756e+01 -2.804655131879e-01 -1.077445122163e+01
 1.28000000e+01 -2.813158138048e-01 -1.110955175056e+01 -2.950501144525e+01 +7.101680889587e+01 -2.950501144525e+01 +7.101680889587e+01 -2.821210830969e-01 -1.112780836893e+01
 1.29000000e+01 -2.831934369867e-01 -1.146180567280e+01 -2.836170762108e+01 +7.165803989256e+01 -2.836170762108e+01 +7.165803989256e+01 -2.840062439637e-01 -1.148001882359e+01
 1.30000000e+01 -2.852981086309e-01 -1.181295623131e+01 -2.735394361262e+01 +7.207562564048e+01 -2.735394361262e+01 +7.207562564047e+01 -2.861185137312e-01 -1.183112038253e+01
 1.31000000e+01 -2.876274853377e-01 -1.216304043640e+01 -2.645362918452e+01 +7.233695700501e+01 -2.645362918452e+01 +7.233695700501e+01 -2.884555496135e-01 -1.218114998338e+01
 1.32000000e+01 -2.901793581173e-01 -1.251209446704e+01 -2.564050142569e+01 +7.248496890715e+01 -2.564050142569e+01 +7.248496890715e+01 -2.910151433214e-01 -1.253014373114e+01
 1.33000000e+01 -2.929516478496e-01 -1.286015369670e+01 -2.489948617755e+01 +7.254828335831e+01 -2.489948617755e+01 +7.254828335831e+01 -2.937952165234e-01 -1.287813692392e+01
 1.34000000e+01 -2.959424009698e-01 -1.320725271808e+01 -2.421907692318e+01 +7.254670034507e+01 -2.421907692318e+01 +7.254670034507e+01 -2.967938165334e-01 -1.322516407772e+01
 1.35000000e+01 -2.991497853658e-01 -1.355342536717e+01 -2.359029726428e+01 +7.249434512035e+01 -2.359029726428e+01 +7.249434512035e+01 -3.000091122103e-01 -1.357125895032e+01
 1.36000000e+01 -3.025720864813e-01 -1.389870474621e+01 -2.300601319302e+01 +7.240155977023e+01 -2.300601319302e+01 +7.240155977023e+01 -3.034393900615e-01 -1.391645456431e+01
 1.37000000e+01 -3.062077036082e-01 -1.424312324603e+01 -2.246046321942e+01 +7.227608641918e+01 -2.246046321942e+01 +7.227608641918e+01 -3.070830505388e-01 -1.426078322929e+01
 1.38000000e+01 -3.100551463657e-01 -1.458671256745e+01 -2.194892878994e+01 +7.212383304125e+01 -2.194892878994e+01 +7.212383304125e+01 -3.109386045169e-01 -1.460427656325e+01
 1.39000000e+01 -3.141130313504e-01 -1.492950374200e+01 -2.146749772952e+01 +7.194938395581e+01 -2.146749772952e+01 +7.194938395581e+01 -3.150046699462e-01 -1.494696551321e+01
 1.40000000e+01 -3.183800789543e-01 -1.527152715181e+01 -2.101289097372e+01 +7.175634900085e+01 -2.101289097372e+01 +7.175634900085e+01 -3.192799686712e-01 -1.528888037512e+01
