#  GHZ S DB R 50.0
 1.00000000e-02 -2.696384163607e+01 +3.301084300228e+00 -3.979665255012e-01 -1.857028951717e-01 -3.979665255011e-01 -1.857028951689e-01 -2.696398618747e+01 +3.300634656411e+00
 2.00000000e-02 -2.691898674807e+01 +6.497472786346e+00 -3.981979419794e-01 -3.677413465124e-01 -3.981979419795e-01 -3.677413465106e-01 -2.691909776710e+01 +6.498282800451e+00
 1.00000000e-01 -2.569201916817e+01 +2.932811716862e+01 -4.047300275316e-01 -1.827479882705e+00 -4.047300275316e-01 -1.827479882705e+00 -2.569136322811e+01 +2.933012355411e+01
 2.00000000e-01 -2.317991322830e+01 +4.746359630728e+01 -4.236580458785e-01 -3.631870246646e+00 -4.236580458786e-01 -3.631870246646e+00 -2.317889602944e+01 +4.745931141988e+01
 3.00000000e-01 -2.074710372817e+01 +5.704542640396e+01 -4.521600089024e-01 -5.403968495493e+00 -4.521600089025e-01 -5.403968495493e+00 -2.074658904963e+01 +5.703595856945e+01
 4.00000000e-01 -1.867372047345e+01 +6.205461080190e+01 -4.881052346527e-01 -7.144895405442e+00 -4.881052346528e-01 -7.144895405442e+00 -1.867392637641e+01 +6.204333057655e+01
 5.00000000e-01 -1.693594393764e+01 +6.462468117957e+01 -5.304048694880e-01 -8.859592271104e+00 -5.304048694881e-01 -8.859592271104e+00 -1.693676688622e+01 +6.461388239245e+01
 6.00000000e-01 -1.546753754157e+01 +6.581711200135e+01 -5.786820728930e-01 -1.055205498458e+01 -5.786820728931e-01 -1.055205498458e+01 -1.546879847863e+01 +6.580790954616e+01
 7.00000000e-01 -1.421021121645e+01 +6.618574643342e+01 -6.328544056266e-01 -1.222429191216e+01 -6.328544056266e-01 -1.222429191216e+01 -1.421174699935e+01 +6.617851951974e+01
 8.00000000e-01 -1.311939250010e+01 +6.603734942193e+01 -6.929000779080e-01 -1.387678302117e+01 -6.929000779081e-01 -1.387678302117e+01 -1.312107784167e+01 +6.603209279334e+01
 9.00000000e-01 -1.216193988580e+01 +6.555158464201e+01 -7.587684576318e-01 -1.550912809541e+01 -7.587684576319e-01 -1.550912809541e+01 -1.216368574578e+01 +6.554811648901e+01
 1.00000000e+00 -1.131313592084e+01 +6.483906221776e+01 -8.303596117135e-01 -1.712051392733e+01 -8.303596117136e-01 -1.712051392733e+01 -1.131488204939e+01 +6.483713529753e+01
 1.10000000e+00 -1.055429351507e+01 +6.397093799410e+01 -9.075290310566e-01 -1.870999039621e+01 -9.075290310566e-01 -1.870999039621e+01 -1.055600092396e+01 +6.397029557359e+01
 1.20000000e+00 -9.871042892227e+00 +6.299476789548e+01 -9.900987088862e-01 -2.027661802597e+01 -9.900987088863e-01 -2.027661802597e+01 -9.872687735425e+00 +6.299517005501e+01
 1.30000000e+00 -9.252139888638e+00 +6.194339469677e+01 -1.077867924337e+00 -2.181954069842e+01 -1.077867924337e+00 -2.181954069842e+01 -9.253708856726e+00 +6.194462913216e+01
 1.40000000e+00 -8.688638322520e+00 +6.084014157550e+01 -1.170621961931e+00 -2.333801750326e+01 -1.170621961931e+00 -2.333801750326e+01 -8.690125292364e+00 +6.084202647392e+01
 1.50000000e+00 -8.173309884058e+00 +5.970196531147e+01 -1.268138686414e+00 -2.483143309495e+01 -1.268138686414e+00 -2.483143309495e+01 -8.174713524298e+00 +5.970434832884e+01
 1.60000000e+00 -7.700231857155e+00 +5.854143824659e+01 -1.370193358113e+00 -2.629929711323e+01 -1.370193358113e+00 -2.629929711323e+01 -7.701553936643e+00 +5.854419372492e+01
 1.70000000e+00 -7.264489527347e+00 +5.736803372428e+01 -1.476562120688e+00 -2.774123829629e+01 -1.476562120688e+00 -2.774123829629e+01 -7.265733732318e+00 +5.737105927732e+01
 1.80000000e+00 -6.861957946931e+00 +5.618898366001e+01 -1.587024520864e+00 -2.915699624282e+01 -1.587024520864e+00 -2.915699624282e+01 -6.863129063244e+00 +5.619219670952e+01
 1.90000000e+00 -6.489139416027e+00 +5.500986537002e+01 -1.701365330919e+00 -3.054641234827e+01 -1.701365330919e+00 -3.054641234827e+01 -6.490242771839e+00 +5.501319991718e+01
 2.00000000e+00 -6.143040678447e+00 +5.383501240828e+01 -1.819375868940e+00 -3.190942067818e+01 -1.819375868940e+00 -3.190942067818e+01 -6.144081771670e+00 +5.383841616214e+01
 2.10000000e+00 -5.821078853949e+00 +5.266780818071e+01 -1.940854954429e+00 -3.324603914004e+01 -1.940854954429e+00 -3.324603914004e+01 -5.822063110004e+00 +5.267124007780e+01
 2.20000000e+00 -5.521008464614e+00 +5.151089974434e+01 -2.065609595297e+00 -3.455636110661e+01 -2.065609595297e+00 -3.455636110661e+01 -5.521941085336e+00 +5.151432784806e+01
 2.30000000e+00 -5.240864157191e+00 +5.036635617088e+01 -2.193455473182e+00 -3.584054754009e+01 -2.193455473183e+00 -3.584054754009e+01 -5.241750032875e+00 +5.036975591747e+01
 2.40000000e+00 -4.978915253718e+00 +4.923578770761e+01 -2.324217273885e+00 -3.709881961828e+01 -2.324217273885e+00 -3.709881961828e+01 -4.979758918300e+00 +4.923914045680e+01
 2.50000000e+00 -4.733629321305e+00 +4.812043675585e+01 -2.457728896026e+00 -3.833145184428e+01 -2.457728896026e+00 -3.833145184428e+01 -4.734434936474e+00 +4.812372860310e+01
 2.60000000e+00 -4.503642694452e+00 +4.702124827991e+01 -2.593833561838e+00 -3.953876561641e+01 -2.593833561839e+00 -3.953876561641e+01 -4.504414052659e+00 +4.702446908937e+01
 2.70000000e+00 -4.287736411284e+00 +4.593892498993e+01 -2.732383847849e+00 -4.072112323587e+01 -2.732383847849e+00 -4.072112323587e+01 -4.288476950599e+00 +4.594206761143e+01
 2.80000000e+00 -4.084816405312e+00 +4.487397110259e+01 -2.873241649189e+00 -4.187892233262e+01 -2.873241649189e+00 -4.187892233262e+01 -4.085529231247e+00 +4.487703074073e+01
 2.90000000e+00 -3.893897071733e+00 +4.382672742442e+01 -3.016278088572e+00 -4.301259069344e+01 -3.016278088572e+00 -4.301259069344e+01 -3.894584982674e+00 +4.382970113230e+01
 3.00000000e+00 -3.714087531757e+00 +4.279739976189e+01 -3.161373379186e+00 -4.412258147789e+01 -3.161373379186e+00 -4.412258147789e+01 -3.714753045751e+00 +4.280028603645e+01
 3.10000000e+00 -3.544580071009e+00 +4.178608213904e+01 -3.308416649517e+00 -4.520936880968e+01 -3.308416649517e+00 -4.520936880968e+01 -3.545225452429e+00 +4.178888059885e+01
 3.20000000e+00 -3.384640342805e+00 +4.079277592879e+01 -3.457305737194e+00 -4.627344373070e+01 -3.457305737194e+00 -4.627344373070e+01 -3.385267627950e+00 +4.079548705839e+01
 3.30000000e+00 -3.233599014334e+00 +3.981740573319e+01 -3.607946958239e+00 -4.731531050505e+01 -3.607946958239e+00 -4.731531050505e+01 -3.234210035424e+00 +3.982003068096e+01
 3.40000000e+00 -3.090844600556e+00 +3.885983264994e+01 -3.760254857500e+00 -4.833548325938e+01 -3.760254857500e+00 -4.833548325938e+01 -3.091441007832e+00 +3.886237306888e+01
 3.50000000e+00 -2.955817282227e+00 +3.791986541669e+01 -3.914151945463e+00 -4.933448294479e+01 -3.914151945463e+00 -4.933448294479e+01 -2.956400564036e+00 +3.792232333945e+01
 3.60000000e+00 -2.828003544476e+00 +3.699726981627e+01 -4.069568426178e+00 -5.031283460466e+01 -4.069568426178e+00 -5.031283460466e+01 -2.828575045361e+00 +3.699964755741e+01
 3.70000000e+00 -2.706931503809e+00 +3.609177664421e+01 -4.226441920457e+00 -5.127106493174e+01 -4.226441920457e+00 -5.127106493174e+01 -2.707492440673e+00 +3.609407672422e+01
 3.80000000e+00 -2.592166816042e+00 +3.520308847881e+01 -4.384717188110e+00 -5.220970009716e+01 -4.384717188110e+00 -5.220970009716e+01 -2.592718292516e+00 +3.520531356510e+01
 3.90000000e+00 -2.483309077291e+00 +3.433088544625e+01 -4.544345852445e+00 -5.312926383351e+01 -4.544345852445e+00 -5.312926383351e+01 -2.483852096452e+00 +3.433303830772e+01
 4.00000000e+00 -2.379988645679e+00 +3.347483013727e+01 -4.705286129893e+00 -5.403027575388e+01 -4.705286129893e+00 -5.403027575388e+01 -2.380524121278e+00 +3.347691360951e+01
 4.10000000e+00 -2.281863823974e+00 +3.263457180365e+01 -4.867502567171e+00 -5.491324988897e+01 -4.867502567171e+00 -5.491324988897e+01 -2.282392590321e+00 +3.263658876239e+01
 4.20000000e+00 -2.188618353349e+00 +3.180974994015e+01 -5.030965788050e+00 -5.577869342434e+01 -5.030965788050e+00 -5.577869342434e+01 -2.189141174012e+00 +3.181170328130e+01
 4.30000000e+00 -2.099959176665e+00 +3.099999734022e+01 -5.195652251443e+00 -5.662710562055e+01 -5.195652251443e+00 -5.662710562055e+01 -2.100476752125e+00 +3.100188996495e+01
 4.40000000e+00 -2.015614436261e+00 +3.020494269948e+01 -5.361544022239e+00 -5.745897689942e+01 -5.361544022239e+00 -5.745897689942e+01 -2.016127410641e+00 +3.020677750325e+01
 4.50000000e+00 -1.935331676660e+00 +2.942421282946e+01 -5.528628556039e+00 -5.827478808057e+01 -5.528628556039e+00 -5.827478808057e+01 -1.935840643645e+00 +2.942599269414e+01
 4.60000000e+00 -1.858876227057e+00 +2.865743453475e+01 -5.696898498735e+00 -5.907500975292e+01 -5.696898498735e+00 -5.907500975292e+01 -1.859381735117e+00 +2.865916232311e+01
 4.70000000e+00 -1.786029742137e+00 +2.790423619916e+01 -5.866351501651e+00 -5.986010176704e+01 -5.866351501651e+00 -5.986010176704e+01 -1.786532299133e+00 +2.790591475116e+01
 4.80000000e+00 -1.716588882811e+00 +2.716424911961e+01 -6.036990052850e+00 -6.063051283499e+01 -6.036990052850e+00 -6.063051283499e+01 -1.717088960063e+00 +2.716588125019e+01
 4.90000000e+00 -1.650364121014e+00 +2.643710862170e+01 -6.208821325040e+00 -6.138668022529e+01 -6.208821325040e+00 -6.138668022529e+01 -1.650862156904e+00 +2.643869711959e+01
 5.00000000e+00 -1.587178654846e+00 +2.572245498581e+01 -6.381857040443e+00 -6.212902954170e+01 -6.381857040443e+00 -6.212902954170e+01 -1.587675058020e+00 +2.572400261321e+01
 5.10000000e+00 -1.526867422134e+00 +2.501993420907e+01 -6.556113352898e+00 -6.285797457506e+01 -6.556113352898e+00 -6.285797457506e+01 -1.527362574343e+00 +2.502144370195e+01
 5.20000000e+00 -1.469276202013e+00 +2.432919862509e+01 -6.731610747443e+00 -6.357391721888e+01 -6.731610747443e+00 -6.357391721888e+01 -1.469770460642e+00 +2.433067269401e+01
 5.30000000e+00 -1.414260795411e+00 +2.364990740053e+01 -6.908373957569e+00 -6.427724743967e+01 -6.908373957569e+00 -6.427724743967e+01 -1.414754495746e+00 +2.365134873183e+01
 5.40000000e+00 -1.361686276458e+00 +2.298172692521e+01 -7.086431900371e+00 -6.496834329413e+01 -7.086431900371e+00 -6.496834329413e+01 -1.362179733702e+00 +2.298313818241e+01
 5.50000000e+00 -1.311426307740e+00 +2.232433111024e+01 -7.265817629786e+00 -6.564757098592e+01 -7.265817629786e+00 -6.564757098592e+01 -1.311919818825e+00 +2.232571493574e+01
 5.60000000e+00 -1.263362513178e+00 +2.167740160690e+01 -7.446568308201e+00 -6.631528495550e+01 -7.446568308201e+00 -6.631528495550e+01 -1.263856358393e+00 +2.167876062375e+01
 5.70000000e+00 -1.217383902994e+00 +2.104062795734e+01 -7.628725196717e+00 -6.697182799705e+01 -7.628725196717e+00 -6.697182799705e+01 -1.217878347441e+00 +2.104196477116e+01
 5.80000000e+00 -1.173386345844e+00 +2.041370768688e+01 -7.812333664451e+00 -6.761753139708e+01 -7.812333664452e+00 -6.761753139708e+01 -1.173881640755e+00 +2.041502488783e+01
 5.90000000e+00 -1.131272083736e+00 +1.979634634628e+01 -7.997443217319e+00 -6.825271508998e+01 -7.997443217319e+00 -6.825271508998e+01 -1.131768467657e+00 +1.979764651106e+01
 6.00000000e+00 -1.090949285810e+00 +1.918825751149e+01 -8.184107546873e+00 -6.887768782607e+01 -8.184107546873e+00 -6.887768782607e+01 -1.091446985669e+00 +1.918954320535e+01
 6.10000000e+00 -1.052331637474e+00 +1.858916274732e+01 -8.372384599859e+00 -6.949274734811e+01 -8.372384599859e+00 -6.949274734810e+01 -1.052830869542e+00 +1.859043652610e+01
 6.20000000e+00 -1.015337961736e+00 +1.799879154068e+01 -8.562336669303e+00 -7.009818057268e+01 -8.562336669303e+00 -7.009818057268e+01 -1.015838932503e+00 +1.800005595279e+01
 6.30000000e+00 -9.798918699198e-01 +1.741688120836e+01 -8.754030508098e+00 -7.069426377316e+01 -8.754030508098e+00 -7.069426377316e+01 -9.803947768797e-01 +1.741813879675e+01
 6.40000000e+00 -9.459214391861e-01 +1.684317678362e+01 -8.947537466229e+00 -7.128126276107e+01 -8.947537466229e+00 -7.128126276107e+01 -9.464264715515e-01 +1.684443008772e+01
 6.50000000e+00 -9.133589145794e-01 +1.627743088534e+01 -9.142933652975e+00 -7.185943306307e+01 -9.142933652975e+00 -7.185943306307e+01 -9.138662539267e-01 +1.627868244295e+01
 6.60000000e+00 -8.821404335061e-01 +1.571940357307e+01 -9.340300125666e+00 -7.242902009069e+01 -9.340300125666e+00 -7.242902009069e+01 -8.826502543617e-01 +1.572065592216e+01
 6.70000000e+00 -8.522057707655e-01 +1.516886219063e+01 -9.539723106800e+00 -7.299025930041e+01 -9.539723106800e+00 -7.299025930041e+01 -8.527182411370e-01 +1.517011787116e+01
 6.80000000e+00 -8.234981024256e-01 +1.462558120096e+01 -9.741294231646e+00 -7.354337634132e+01 -9.741294231646e+00 -7.354337634132e+01 -8.240133842843e-01 +1.462684275655e+01
 6.90000000e+00 -7.959637869942e-01 +1.408934201406e+01 -9.945110828770e+00 -7.408858718785e+01 -9.945110828770e+00 -7.408858718785e+01 -7.964820367133e-01 +1.409061199368e+01
 7.00000000e+00 -7.695521624767e-01 +1.355993281013e+01 -1.015127623630e+01 -7.462609825512e+01 -1.015127623630e+01 -7.462609825512e+01 -7.700735312309e-01 +1.356121376968e+01
 7.10000000e+00 -7.442153580409e-01 +1.303714835927e+01 -1.035990015716e+01 -7.515610649390e+01 -1.035990015716e+01 -7.515610649390e+01 -7.447399921698e-01 +1.303844286311e+01
 7.20000000e+00 -7.199081191215e-01 +1.252078983921e+01 -1.057109905706e+01 -7.567879946267e+01 -1.057109905706e+01 -7.567879946267e+01 -7.204361604615e-01 +1.252210046166e+01
 7.30000000e+00 -6.965876449002e-01 +1.201066465218e+01 -1.078499660947e+01 -7.619435537330e+01 -1.078499660947e+01 -7.619435537330e+01 -6.971192310874e-01 +1.201199397891e+01
 7.40000000e+00 -6.742134371919e-01 +1.150658624193e+01 -1.100172419254e+01 -7.670294310725e+01 -1.100172419254e+01 -7.670294310725e+01 -6.747487019397e-01 +1.150793687134e+01
 7.50000000e+00 -6.527471598484e-01 +1.100837391169e+01 -1.122142144380e+01 -7.720472219822e+01 -1.122142144380e+01 -7.720472219822e+01 -6.532862332021e-01 +1.100974845620e+01
 7.60000000e+00 -6.321525078707e-01 +1.051585264384e+01 -1.144423687895e+01 -7.769984277711e+01 -1.144423687895e+01 -7.769984277711e+01 -6.326955164410e-01 +1.051725373115e+01
 7.70000000e+00 -6.123950854857e-01 +1.002885292178e+01 -1.167032858266e+01 -7.818844547412e+01 -1.167032858266e+01 -7.818844547412e+01 -6.129421526641e-01 +1.003028319608e+01
 7.80000000e+00 -5.934422925097e-01 +9.547210554624e+00 -1.189986497991e+01 -7.867066127248e+01 -1.189986497991e+01 -7.867066127248e+01 -5.939935386669e-01 +9.548672677752e+00
 7.90000000e+00 -5.752632183731e-01 +9.070766504937e+00 -1.213302569818e+01 -7.914661130691e+01 -1.213302569818e+01 -7.914661130691e+01 -5.758187610429e-01 +9.072263157510e+00
 8.00000000e+00 -5.578285432371e-01 +8.599366720043e+00 -1.237000253241e+01 -7.961640659913e+01 -1.237000253241e+01 -7.961640659913e+01 -5.583884972864e-01 +8.600900602524e+00
 8.10000000e+00 -5.411104456757e-01 +8.132861966976e+00 -1.261100052626e+01 -8.008014772097e+01 -1.261100052626e+01 -8.008014772097e+01 -5.416749234627e-01 +8.134435800731e+00
 8.20000000e+00 -5.250825164412e-01 +7.671107671400e+00 -1.285623918618e+01 -8.053792437420e+01 -1.285623918618e+01 -8.053792437420e+01 -5.256516279628e-01 +7.672724199708e+00
 8.30000000e+00 -5.097196778707e-01 +7.213963760588e+00 -1.310595384682e+01 -8.098981487380e+01 -1.310595384682e+01 -8.098981487380e+01 -5.102935308996e-01 +7.215625749629e+00
 8.40000000e+00 -4.949981085234e-01 +6.761294510588e+00 -1.336039721019e+01 -8.143588551888e+01 -1.336039721019e+01 -8.143588551888e+01 -4.955768087369e-01 +6.763004750407e+00
 8.50000000e+00 -4.808951726760e-01 +6.312968397650e+00 -1.361984108469e+01 -8.187618983220e+01 -1.361984108469e+01 -8.187618983220e+01 -4.814788237762e-01 +6.314729703092e+00
 8.60000000e+00 -4.673893543275e-01 +5.868857953939e+00 -1.388457835505e+01 -8.231076764506e+01 -1.388457835505e+01 -8.231076764506e+01 -4.679780581543e-01 +5.870673165573e+00
 8.70000000e+00 -4.544601953956e-01 +5.428839627570e+00 -1.415492522005e+01 -8.273964399954e+01 -1.415492522005e+01 -8.273964399954e+01 -4.550540520327e-01 +5.430711612590e+00
 8.80000000e+00 -4.420882378101e-01 +4.992793646933e+00 -1.443122374196e+01 -8.316282783333e+01 -1.443122374196e+01 -8.316282783332e+01 -4.426873456853e-01 +4.994725300048e+00
 8.90000000e+00 -4.302549692315e-01 +4.560603889297e+00 -1.471384476055e+01 -8.358031040490e+01 -1.471384476055e+01 -8.358031040490e+01 -4.308594252107e-01 +4.562598133610e+00
 9.00000000e+00 -4.189427721440e-01 +4.132157753638e+00 -1.500319123522e+01 -8.399206340626e+01 -1.500319123522e+01 -8.399206340626e+01 -4.195526716201e-01 +4.134217541514e+00
 9.10000000e+00 -4.081348760913e-01 +3.707346037637e+00 -1.529970209212e+01 -8.439803669787e+01 -1.529970209212e+01 -8.439803669787e+01 -4.087503130678e-01 +3.709474351561e+00
 9.20000000e+00 -3.978153128392e-01 +3.286062818780e+00 -1.560385667010e+01 -8.479815558367e+01 -1.560385667010e+01 -8.479815558368e+01 -3.984363800097e-01 +3.288262672215e+00
 9.30000000e+00 -3.879688742694e-01 +2.868205339472e+00 -1.591617987987e+01 -8.519231752285e+01 -1.591617987987e+01 -8.519231752285e+01 -3.885956630918e-01 +2.870479777710e+00
 9.40000000e+00 -3.785810728176e-01 +2.453673896096e+00 -1.623724821788e+01 -8.558038814697e+01 -1.623724821788e+01 -8.558038814697e+01 -3.792136735850e-01 +2.456025997105e+00
 9.50000000e+00 -3.696381042886e-01 +2.042371731911e+00 -1.656769680954e+01 -8.596219641475e+01 -1.656769680954e+01 -8.596219641475e+01 -3.702766061951e-01 +2.044804607184e+00
 9.60000000e+00 -3.611268128886e-01 +1.634204933696e+00 -1.690822770016e+01 -8.633752868797e+01 -1.690822770016e+01 -8.633752868797e+01 -3.617713040926e-01 +1.636721729096e+00
 9.70000000e+00 -3.530346583302e-01 +1.229082332047e+00 -1.725961966785e+01 -8.670612144758e+01 -1.725961966785e+01 -8.670612144758e+01 -3.536852260125e-01 +1.231686228659e+00
 9.80000000e+00 -3.453496848729e-01 +8.269154052161e-01 -1.762273990549e+01 -8.706765228146e+01 -1.762273990549e+01 -8.706765228146e+01 -3.460064152926e-01 +8.296096201954e-01
 9.90000000e+00 -3.380604921752e-01 +4.276181864011e-01 -1.799855801524e+01 -8.742172865605e+01 -1.799855801524e+01 -8.742172865605e+01 -3.387234707211e-01 +4.304059738257e-01
 1.00000000e+01 -3.311562078388e-01 +3.110717436679e-02 -1.838816288641e+01 -8.776787381999e+01 -1.838816288641e+01 -8.776787381999e+01 -3.318255190783e-01 +3.399182609467e-02
 1.01000000e+01 -3.246264615395e-01 -3.626987526914e-01 -1.879278319947e+01 -8.810550895820e+01 -1.879278319947e+01 -8.810550895820e+01 -3.253021892632e-01 -3.597139061624e-01
 1.02000000e+01 -3.184613606405e-01 -7.538784201542e-01 -1.921381253148e+01 -8.843393039089e+01 -1.921381253148e+01 -8.843393039089e+01 -3.191435879048e-01 -7.507900088215e-01
 1.03000000e+01 -3.126514671971e-01 -1.142508436954e+00 -1.965284035891e+01 -8.875228014684e+01 -1.965284035891e+01 -8.875228014684e+01 -3.133402763631e-01 -1.139313050442e+00
 1.04000000e+01 -3.071877762639e-01 -1.528663272624e+00 -2.011169070001e+01 -8.905950756409e+01 -2.011169070001e+01 -8.905950756409e+01 -3.078832490331e-01 -1.525357459305e+00
 1.05000000e+01 -3.020616954232e-01 -1.912415331513e+00 -2.059247077000e+01 -8.935431856976e+01 -2.059247077000e+01 -8.935431856976e+01 -3.027639128708e-01 -1.908995597635e+00
 1.06000000e+01 -2.972650254595e-01 -2.293835024276e+00 -2.109763292828e+01 -8.963510778266e+01 -2.109763292828e+01 -8.963510778266e+01 -2.979740680645e-01 -2.290297833070e+00
 1.07000000e+01 -2.927899421095e-01 -2.672990836728e+00 -2.163005452074e+01 -8.989986626460e+01 -2.163005452074e+01 -8.989986626460e+01 -2.935058897821e-01 -2.669332607519e+00
 1.08000000e+01 -2.886289788211e-01 -3.049949396150e+00 -2.219314219085e+01 -9.014605410602e+01 -2.219314219085e+01 -9.014605410602e+01 -2.893519109275e-01 -3.046166503460e+00
 1.09000000e+01 -2.847750104611e-01 -3.424775535157e+00 -2.279097022940e+01 -9.037042117404e+01 -2.279097022940e+01 -9.037042117404e+01 -2.855050058454e-01 -3.420864307799e+00
 1.10000000e+01 -2.812212379134e-01 -3.797532353192e+00 -2.342846719491e+01 -9.056874966861e+01 -2.342846719491e+01 -9.056874966861e+01 -2.819583749174e-01 -3.793489073363e+00
 1.11000000e+01 -2.779611735156e-01 -4.168281275759e+00 -2.411167248180e+01 -9.073547563371e+01 -2.411167248180e+01 -9.073547563371e+01 -2.787055299952e-01 -4.164102178119e+00
 1.12000000e+01 -2.749886272818e-01 -4.537082111453e+00 -2.484809675691e+01 -9.086311748143e+01 -2.484809675691e+01 -9.086311748143e+01 -2.757402806222e-01 -4.532763382205e+00
 1.13000000e+01 -2.722976938682e-01 -4.903993106889e+00 -2.564724099434e+01 -9.094138625262e+01 -2.564724099434e+01 -9.094138625262e+01 -2.730567209957e-01 -4.899530882848e+00
 1.14000000e+01 -2.698827402353e-01 -5.269070999599e+00 -2.652136557468e+01 -9.095575005965e+01 -2.652136557468e+01 -9.095575005965e+01 -2.706492176274e-01 -5.264461367255e+00
 1.15000000e+01 -2.677383939672e-01 -5.632371068975e+00 -2.748666865310e+01 -9.088501846816e+01 -2.748666865310e+01 -9.088501846816e+01 -2.685123976601e-01 -5.627610063550e+00
 1.16000000e+01 -2.658595322096e-01 -5.993947185330e+00 -2.856516441052e+01 -9.069706823678e+01 -2.856516441052e+01 -9.069706823678e+01 -2.666411378040e-01 -5.989030789827e+00
 1.17000000e+01 -2.642412711912e-01 -6.353851857152e+00 -2.978782240645e+01 -9.034080295302e+01 -2.978782240645e+01 -9.034080295302e+01 -2.650305538557e-01 -6.348776001394e+00
 1.18000000e+01 -2.628789562948e-01 -6.712136276615e+00 -3.120012741435e+01 -8.972982969341e+01 -3.120012741435e+01 -8.972982969341e+01 -2.636759907673e-01 -6.706896836286e+00
 1.19000000e+01 -2.617681526471e-01 -7.068850363422e+00 -3.287265805097e+01 -8.870591573651e+01 -3.287265805097e+01 -8.870591573651e+01 -2.625730132344e-01 -7.063443159088e+00
 1.20000000e+01 -2.609046361972e-01 -7.424042807028e+00 -3.492310614003e+01 -8.694580586452e+01 -3.492310614003e+01 -8.694580586452e+01 -2.617173967728e-01 -7.418463603159e+00
 1.21000000e+01 -2.602843852586e-01 -7.777761107324e+00 -3.756743608003e+01 -8.367614225372e+01 -3.756743608003e+01 -8.367614225373e+01 -2.611051192583e-01 -7.772005611304e+00
 1.22000000e+01 -2.599035724850e-01 -8.130051613822e+00 -4.125117022645e+01 -7.652937263644e+01 -4.125117022644e+01 -7.652937263644e+01 -2.607323529016e-01 -8.124115474954e+00
 1.23000000e+01 -2.597585572607e-01 -8.480959563416e+00 -4.682268220624e+01 -5.471440980478e+01 -4.682268220624e+01 -5.471440980482e+01 -2.605954566360e-01 -8.474838371912e+00
 1.24000000e+01 -2.598458784785e-01 -8.830529116758e+00 -4.927202096623e+01 +1.595448066512e+01 -4.927202096624e+01 +1.595448066510e+01 -2.606909688946e-01 -8.824218402729e+00
 1.25000000e+01 -2.601622476872e-01 -9.178803393312e+00 -4.324120749757e+01 +5.413041900816e+01 -4.324120749758e+01 +5.413041900816e+01 -2.610156007557e-01 -9.172298625742e+00
 1.26000000e+01 -2.607045425864e-01 -9.525824505132e+00 -3.896578887808e+01 +6.467979892181e+01 -3.896578887808e+01 +6.467979892182e+01 -2.615662294362e-01 -9.519121090846e+00
 1.27000000e+01 -2.614698008512e-01 -9.871633589415e+00 -3.602707688983e+01 +6.902911553369e+01 -3.602707688983e+01 +6.902911553369e+01 -2.623398921156e-01 -9.864726872034e+00
 1.28000000e+01 -2.624552142693e-01 -1.021627083987e+01 -3.381926429397e+01 +7.126032667040e+01 -3.381926429397e+01 +7.126032667040e+01 -2.633337800707e-01 -1.020915609876e+01
 1.29000000e+01 -2.636581231729e-01 -1.055977553697e+01 -3.205862046199e+01 +7.253519821951e+01 -3.205862046199e+01 +7.253519821951e+01 -2.645452331067e-01 -1.055244798618e+01
 1.30000000e+01 -2.650760111506e-01 -1.090218607708e+01 -3.059737483085e+01 +7.330031181865e+01 -3.059737483085e+01 +7.330031181865e+01 -2.659717342682e-01 -1.089464086425e+01
 1.31000000e+01 -2.667065000247e-01 -1.124354000055e+01 -2.934993943079e+01 +7.376253854602e+01 -2.934993943079e+01 +7.376253854602e+01 -2.676109048147e-01 -1.123577220586e+01
 1.32000000e+01 -2.685473450799e-01 -1.158387401885e+01 -2.826258326688e+01 +7.403051618894e+01 -2.826258326688e+01 +7.403051618894e+01 -2.694604994484e-01 -1.157587865387e+01
 1.33000000e+01 -2.705964305303e-01 -1.192322404059e+01 -2.729945374351e+01 +7.416667013643e+01 -2.729945374351e+01 +7.416667013643e+01 -2.715184017805e-01 -1.191499604722e+01
 1.34000000e+01 -2.728517652133e-01 -1.226162519681e+01 -2.643546979495e+01 +7.420938584312e+01 -2.643546979495e+01 +7.420938584312e+01 -2.737826200231e-01 -1.225315944613e+01
 1.35000000e+01 -2.753114784972e-01 -1.259911186515e+01 -2.565241412553e+01 +7.418354719706e+01 -2.565241412553e+01 +7.418354719706e+01 -2.762512828971e-01 -1.259040315628e+01
 1.36000000e+01 -2.779738163942e-01 -1.293571769335e+01 -2.493664502049e+01 +7.410598331409e+01 -2.493664502049e+01 +7.410598331409e+01 -2.789226357427e-01 -1.292676075230e+01
 1.37000000e+01 -2.808371378658e-01 -1.327147562175e+01 -2.427768604408e+01 +7.398847755925e+01 -2.427768604408e+01 +7.398847755925e+01 -2.817950368254e-01 -1.326226510026e+01
 1.38000000e+01 -2.838999113135e-01 -1.360641790511e+01 -2.366731913405e+01 +7.383952245236e+01 -2.366731913405e+01 +7.383952245236e+01 -2.848669538248e-01 -1.359694837946e+01
 1.39000000e+01 -2.871607112441e-01 -1.394057613357e+01 -2.309898023273e+01 +7.366539029335e+01 -2.309898023273e+01 +7.366539029335e+01 -2.881369604988e-01 -1.393084210340e+01
 1.40000000e+01 -2.906182151010e-01 -1.427398125295e+01 -2.256734411020e+01 +7.347081163185e+01 -2.256734411020e+01 +7.347081163185e+01 -2.916037335153e-01 -1.426397713999e+01
