#  GHZ S DB R 50.0
 1.00000000e-02 -2.698301829733e+01 +3.419491892300e+00 -3.969843764659e-01 -1.914368225354e-01 -3.969843764662e-01 -1.914368225275e-01 -2.698413768435e+01 +3.433936091349e+00
 2.00000000e-02 -2.693671500683e+01 +6.584722217864e+00 -3.972649658617e-01 -3.716994016462e-01 -3.972649658618e-01 -3.716994016424e-01 -2.693766595639e+01 +6.594412991094e+00
 1.00000000e-01 -2.569677011554e+01 +2.937596714848e+01 -4.043329306593e-01 -1.830385046648e+00 -4.043329306594e-01 -1.830385046647e+00 -2.569648975035e+01 +2.938248338278e+01
 2.00000000e-01 -2.318449714262e+01 +4.747781940515e+01 -4.234832884212e-01 -3.633369273167e+00 -4.234832884213e-01 -3.633369273167e+00 -2.318348143459e+01 +4.747666906691e+01
 3.00000000e-01 -2.075243239242e+01 +5.705513197726e+01 -4.520822834480e-01 -5.404390928935e+00 -4.520822834480e-01 -5.404390928935e+00 -2.075179322957e+01 +5.704720154106e+01
 4.00000000e-01 -1.867906936756e+01 +6.206425167655e+01 -4.880774377774e-01 -7.144357243986e+00 -4.880774377774e-01 -7.144357243986e+00 -1.867915624019e+01 +6.205340565290e+01
 5.00000000e-01 -1.694107453399e+01 +6.463401858627e+01 -5.303975056220e-01 -8.858201166422e+00 -5.303975056220e-01 -8.858201166422e+00 -1.694182479594e+01 +6.462301980973e+01
 6.00000000e-01 -1.547242903195e+01 +6.582568220740e+01 -5.786782495532e-01 -1.054993063238e+01 -5.786782495533e-01 -1.054993063238e+01 -1.547366739236e+01 +6.581595222597e+01
 7.00000000e-01 -1.421489479781e+01 +6.619334677637e+01 -6.328466562874e-01 -1.222154934964e+01 -6.328466562875e-01 -1.222154934964e+01 -1.421644974853e+01 +6.618544100672e+01
 8.00000000e-01 -1.312390029045e+01 +6.604394010284e+01 -6.928871702503e-01 -1.387352268132e+01 -6.928871702504e-01 -1.387352268132e+01 -1.312563596370e+01 +6.603794538718e+01
 9.00000000e-01 -1.216629471825e+01 +6.555718785546e+01 -7.587529699619e-01 -1.550543375142e+01 -7.587529699620e-01 -1.550543375142e+01 -1.216811281271e+01 +6.555296492554e+01
 1.00000000e+00 -1.131735223028e+01 +6.484371080828e+01 -8.303463481667e-01 -1.711645442305e+01 -8.303463481668e-01 -1.711645442305e+01 -1.131918547232e+01 +6.484102789515e+01
 1.10000000e+00 -1.055838016608e+01 +6.397465544379e+01 -9.075240695739e-01 -1.870562251889e+01 -9.075240695740e-01 -1.870562251889e+01 -1.056018466740e+01 +6.397325792272e+01
 1.20000000e+00 -9.875005598863e+00 +6.299756342596e+01 -9.901088660780e-01 -2.027198929945e+01 -9.901088660781e-01 -2.027198929945e+01 -9.876754282156e+00 +6.299720794403e+01
 1.30000000e+00 -9.255982851172e+00 +6.194526464615e+01 -1.077900473880e+00 -2.181469164978e+01 -1.077900473881e+00 -2.181469164978e+01 -9.257660349324e+00 +6.194573401349e+01
 1.40000000e+00 -8.692365203565e+00 +6.084107281705e+01 -1.170684495765e+00 -2.333298332738e+01 -1.170684495765e+00 -2.333298332738e+01 -8.693964092675e+00 +6.084218073061e+01
 1.50000000e+00 -8.176924322512e+00 +5.970193884470e+01 -1.268239048993e+00 -2.482624480131e+01 -1.268239048993e+00 -2.482624480131e+01 -8.178442421374e+00 +5.970352946762e+01
 1.60000000e+00 -7.703737687807e+00 +5.854043223204e+01 -1.370339613309e+00 -2.629398229006e+01 -1.370339613309e+00 -2.629398229006e+01 -7.705176163540e+00 +5.854237739600e+01
 1.70000000e+00 -7.267890826946e+00 +5.736602576173e+01 -1.476762530464e+00 -2.773582162273e+01 -1.476762530464e+00 -2.773582162273e+01 -7.269252890719e+00 +5.736822129226e+01
 1.80000000e+00 -6.865258987461e+00 +5.618595233937e+01 -1.587287526914e+00 -2.915149985302e+01 -1.587287526914e+00 -2.915149985302e+01 -6.866549012669e+00 +5.618831428722e+01
 1.90000000e+00 -6.492344576508e+00 +5.500579121135e+01 -1.701699537086e+00 -3.054085611862e+01 -1.701699537086e+00 -3.054085611862e+01 -6.493567514087e+00 +5.500825236828e+01
 2.00000000e+00 -6.146154346363e+00 +5.382987832811e+01 -1.819790025305e+00 -3.190382247983e+01 -1.819790025305e+00 -3.190382247983e+01 -6.147315345871e+00 +5.383238518088e+01
 2.10000000e+00 -5.824105333964e+00 +5.266159961401e+01 -1.941357944861e+00 -3.324041507705e+01 -1.941357944861e+00 -3.324041507705e+01 -5.825209505067e+00 +5.266410977003e+01
 2.20000000e+00 -5.523951903488e+00 +5.150360453249e+01 -2.066210430045e+00 -3.455072574543e+01 -2.066210430045e+00 -3.455072574543e+01 -5.525004171844e+00 +5.150608459029e+01
 2.30000000e+00 -5.243728488304e+00 +5.035796430440e+01 -2.194163287402e+00 -3.583491412794e+01 -2.194163287402e+00 -3.583491412794e+01 -5.244733513924e+00 +5.036038811614e+01
 2.40000000e+00 -4.981704161228e+00 +4.922629099182e+01 -2.325041332232e+00 -3.709320028452e+01 -2.325041332232e+00 -3.709320028452e+01 -4.982666297473e+00 +4.922863825759e+01
 2.50000000e+00 -4.736346222042e+00 +4.810982844937e+01 -2.458678602839e+00 -3.832585777842e+01 -2.458678602839e+00 -3.832585777842e+01 -4.737269500490e+00 +4.811208358497e+01
 2.60000000e+00 -4.506290734681e+00 +4.700952274082e+01 -2.594918475989e+00 -3.953320721781e+01 -2.594918475989e+00 -3.953320721781e+01 -4.507178866056e+00 +4.701167396746e+01
 2.70000000e+00 -4.290318475124e+00 +4.592607735207e+01 -2.733613701145e+00 -4.071561023229e+01 -2.733613701145e+00 -4.071561023229e+01 -4.291174859815e+00 +4.592811596402e+01
 2.80000000e+00 -4.087335131668e+00 +4.485999699498e+01 -2.874626367165e+00 -4.187346386701e+01 -2.874626367165e+00 -4.187346386701e+01 -4.088162875665e+00 +4.486191676919e+01
 2.90000000e+00 -3.896354876872e+00 +4.381162273957e+01 -3.017827812591e+00 -4.300719538026e+01 -3.017827812591e+00 -4.300719538026e+01 -3.897156810462e+00 +4.381341945838e+01
 3.00000000e+00 -3.716486635090e+00 +4.278116047378e+01 -3.163098488957e+00 -4.411725743186e+01 -3.163098488957e+00 -4.411725743186e+01 -3.717265332662e+00 +4.278283153747e+01
 3.10000000e+00 -3.546922522100e+00 +4.176870416789e+01 -3.310327785316e+00 -4.520412365064e+01 -3.310327785316e+00 -4.520412365064e+01 -3.547680322030e+00 +4.177024827920e+01
 3.20000000e+00 -3.386928048070e+00 +4.077425504777e+01 -3.459413821319e+00 -4.626828456886e+01 -3.459413821319e+00 -4.626828456886e+01 -3.387667072117e+00 +4.077567195408e+01
 3.30000000e+00 -3.235833762334e+00 +3.979773751104e+01 -3.610263215414e+00 -4.731024391102e+01 -3.610263215414e+00 -4.731024391102e+01 -3.236555934185e+00 +3.979902779307e+01
 3.40000000e+00 -3.093028085137e+00 +3.883901242299e+01 -3.762790834120e+00 -4.833051522303e+01 -3.762790834120e+00 -4.833051522303e+01 -3.093735147945e+00 +3.884017732143e+01
 3.50000000e+00 -2.957951123068e+00 +3.789788828410e+01 -3.916919527731e+00 -4.932961882666e+01 -3.916919527731e+00 -4.932961882666e+01 -2.958644655890e+00 +3.789892955711e+01
 3.60000000e+00 -2.830089304851e+00 +3.697413065251e+01 -4.072579857278e+00 -5.030807908304e+01 -4.072579857278e+00 -5.030807908304e+01 -2.830770737971e+00 +3.697505045883e+01
 3.70000000e+00 -2.708970705550e+00 +3.606747012385e+01 -4.229709816994e+00 -5.126642194795e+01 -4.229709816994e+00 -5.126642194795e+01 -2.709641334691e+00 +3.606827092699e+01
 3.80000000e+00 -2.594160951830e+00 +3.517760910899e+01 -4.388254556097e+00 -5.220517280093e+01 -4.388254556097e+00 -5.220517280093e+01 -2.594821951288e+00 +3.517829359911e+01
 3.90000000e+00 -2.485259620471e+00 +3.430422760342e+01 -4.548166103143e+00 -5.312485452978e+01 -4.548166103143e+00 -5.312485452978e+01 -2.485912055213e+00 +3.430479863384e+01
 4.00000000e+00 -2.381897057891e+00 +3.344698810531e+01 -4.709403095820e+00 -5.402598585194e+01 -4.709403095820e+00 -5.402598585195e+01 -2.382541894654e+00 +3.344744864141e+01
 4.10000000e+00 -2.283731560865e+00 +3.260553981117e+01 -4.871930518584e+00 -5.490907985422e+01 -4.871930518584e+00 -5.490907985422e+01 -2.284369678307e+00 +3.260589288961e+01
 4.20000000e+00 -2.190446868683e+00 +3.177952219553e+01 -5.035719450201e+00 -5.577464273271e+01 -5.035719450201e+00 -5.577464273271e+01 -2.191079066640e+00 +3.177977089209e+01
 4.30000000e+00 -2.101749925113e+00 +3.096856806324e+01 -5.200746822881e+00 -5.662317271538e+01 -5.200746822881e+00 -5.662317271538e+01 -2.102376933004e+00 +3.096871546795e+01
 4.40000000e+00 -2.017368875138e+00 +3.017230614905e+01 -5.366995194413e+00 -5.745515915027e+01 -5.366995194413e+00 -5.745515915027e+01 -2.017991359577e+00 +3.017235534729e+01
 4.50000000e+00 -1.937051266849e+00 +2.939036332705e+01 -5.534452534434e+00 -5.827108174328e+01 -5.534452534434e+00 -5.827108174328e+01 -1.937669838508e+00 +2.939031738565e+01
 4.60000000e+00 -1.860562433342e+00 +2.862236648366e+01 -5.703112025745e+00 -5.907140993025e+01 -5.703112025745e+00 -5.907140993025e+01 -1.861177653119e+00 +2.862222844113e+01
 4.70000000e+00 -1.787684033107e+00 +2.786794409960e+01 -5.872971881396e+00 -5.985660236900e+01 -5.872971881396e+00 -5.985660236900e+01 -1.788296417652e+00 +2.786771695969e+01
 4.80000000e+00 -1.718212730503e+00 +2.712672758017e+01 -6.044035178103e+00 -6.062710653808e+01 -6.044035178103e+00 -6.062710653808e+01 -1.718822757141e+00 +2.712641430807e+01
 4.90000000e+00 -1.651959000404e+00 +2.639835236733e+01 -6.216309706445e+00 -6.138335842977e+01 -6.216309706445e+00 -6.138335842977e+01 -1.652567111520e+00 +2.639795588814e+01
 5.00000000e+00 -1.588746043292e+00 +2.568245886296e+01 -6.389807838184e+00 -6.212578232601e+01 -6.389807838184e+00 -6.212578232601e+01 -1.589352650208e+00 +2.568198206172e+01
 5.10000000e+00 -1.528408798841e+00 +2.497869318835e+01 -6.564546410992e+00 -6.285479064669e+01 -6.564546410992e+00 -6.285479064669e+01 -1.529014285237e+00 +2.497813891140e+01
 5.20000000e+00 -1.470793047562e+00 +2.428670780192e+01 -6.740546630823e+00 -6.357078386077e+01 -6.740546630823e+00 -6.357078386077e+01 -1.471397772487e+00 +2.428607885924e+01
 5.30000000e+00 -1.415754591408e+00 +2.360616199423e+01 -6.917833992145e+00 -6.427415045146e+01 -6.917833992145e+00 -6.427415045146e+01 -1.416358891919e+00 +2.360546116239e+01
 5.40000000e+00 -1.363158505306e+00 +2.293672227693e+01 -7.096438216255e+00 -6.496526692749e+01 -7.096438216255e+00 -6.496526692749e+01 -1.363762698767e+00 +2.293595230256e+01
 5.50000000e+00 -1.312878452551e+00 +2.227806268007e+01 -7.276393207911e+00 -6.564449787326e+01 -7.276393207911e+00 -6.564449787326e+01 -1.313482838643e+00 +2.227722628353e+01
 5.60000000e+00 -1.264796057825e+00 +2.162986497051e+01 -7.457737030563e+00 -6.631219603133e+01 -7.457737030563e+00 -6.631219603133e+01 -1.265400920285e+00 +2.162896484973e+01
 5.70000000e+00 -1.218800332298e+00 +2.099181880242e+01 -7.640511900509e+00 -6.696870241126e+01 -7.640511900509e+00 -6.696870241126e+01 -1.219405940427e+00 +2.099085763667e+01
 5.80000000e+00 -1.174787145886e+00 +2.036362180953e+01 -7.824764200389e+00 -6.761434641947e+01 -7.824764200389e+00 -6.761434641947e+01 -1.175393755853e+00 +2.036260226317e+01
 5.90000000e+00 -1.132658742270e+00 +1.974497964769e+01 -8.010544512506e+00 -6.824944600523e+01 -8.010544512507e+00 -6.824944600523e+01 -1.133266598238e+00 +1.974390437369e+01
 6.00000000e+00 -1.092323292776e+00 +1.913560599487e+01 -8.197907672577e+00 -6.887430781835e+01 -8.197907672577e+00 -6.887430781835e+01 -1.092932627866e+00 +1.913447763817e+01
 6.10000000e+00 -1.053694485572e+00 +1.853522251537e+01 -8.386912844633e+00 -6.948922737449e+01 -8.386912844633e+00 -6.948922737449e+01 -1.054305522707e+00 +1.853404371594e+01
 6.20000000e+00 -1.016691147069e+00 +1.794355879352e+01 -8.577623617949e+00 -7.009448922442e+01 -8.577623617949e+00 -7.009448922442e+01 -1.017304099691e+00 +1.794233218921e+01
 6.30000000e+00 -9.812368926603e-01 +1.736035224211e+01 -8.770108127011e+00 -7.069036712378e+01 -8.770108127011e+00 -7.069036712378e+01 -9.818519653561e-01 +1.735908047118e+01
 6.40000000e+00 -9.472598042669e-01 +1.678534798951e+01 -8.964439195749e+00 -7.127712420010e+01 -8.964439195749e+00 -7.127712420010e+01 -9.478771933123e-01 +1.678403369292e+01
 6.50000000e+00 -9.146921323869e-01 +1.621829874953e+01 -9.160694507459e+00 -7.185501311415e+01 -9.160694507460e+00 -7.185501311415e+01 -9.153120262211e-01 +1.621694457290e+01
 6.60000000e+00 -8.834700205605e-01 +1.565896467695e+01 -9.358956802053e+00 -7.242427621258e+01 -9.358956802053e+00 -7.242427621259e+01 -8.840926002042e-01 +1.565757327233e+01
 6.70000000e+00 -8.535332503757e-01 +1.510711321178e+01 -9.559314102584e+00 -7.298514566922e+01 -9.559314102584e+00 -7.298514566922e+01 -8.541586898041e-01 +1.510568723915e+01
 6.80000000e+00 -8.248250053080e-01 +1.456251891459e+01 -9.761859973263e+00 -7.353784361202e+01 -9.761859973263e+00 -7.353784361202e+01 -8.254534717855e-01 +1.456106104312e+01
 6.90000000e+00 -7.972916518441e-01 +1.402496329498e+01 -9.966693811552e+00 -7.408258223301e+01 -9.966693811552e+00 -7.408258223301e+01 -7.979233062301e-01 +1.402347620409e+01
 7.00000000e+00 -7.708825364862e-01 +1.349423463511e+01 -1.017392117729e+01 -7.461956387824e+01 -1.017392117729e+01 -7.461956387824e+01 -7.715175335178e-01 +1.349272101537e+01
 7.10000000e+00 -7.455497973553e-01 +1.297012780979e+01 -1.038365416229e+01 -7.514898111463e+01 -1.038365416229e+01 -7.514898111463e+01 -7.461882859125e-01 +1.296859036362e+01
 7.20000000e+00 -7.212481892305e-01 +1.245244410452e+01 -1.059601180431e+01 -7.567101677045e+01 -1.059601180431e+01 -7.567101677045e+01 -7.218903125885e-01 +1.245088554682e+01
 7.30000000e+00 -6.979349209601e-01 +1.194099103266e+01 -1.081112055001e+01 -7.618584394584e+01 -1.081112055001e+01 -7.618584394585e+01 -6.985808170323e-01 +1.193941409121e+01
 7.40000000e+00 -6.755695042763e-01 +1.143558215254e+01 -1.102911477201e+01 -7.669362598937e+01 -1.102911477201e+01 -7.669362598937e+01 -6.762193058516e-01 +1.143398956845e+01
 7.50000000e+00 -6.541136131278e-01 +1.093603688569e+01 -1.125013734612e+01 -7.719451643598e+01 -1.125013734612e+01 -7.719451643598e+01 -6.547674481043e-01 +1.093443141362e+01
 7.60000000e+00 -6.335309527201e-01 +1.044218033647e+01 -1.147434029575e+01 -7.768865890143e+01 -1.147434029575e+01 -7.768865890143e+01 -6.341889443368e-01 +1.044056474493e+01
 7.70000000e+00 -6.137871375230e-01 +9.953843114050e+00 -1.170188551142e+01 -7.817618692712e+01 -1.170188551142e+01 -7.817618692712e+01 -6.144494045913e-01 +9.952220185574e+00
 7.80000000e+00 -5.948495775648e-01 +9.470861157027e+00 -1.193294555471e+01 -7.865722376853e+01 -1.193294555471e+01 -7.865722376853e+01 -5.955162347012e-01 +9.469233688360e+00
 7.90000000e+00 -5.766873723933e-01 +8.993075561142e+00 -1.216770455746e+01 -7.913188211924e+01 -1.216770455746e+01 -7.913188211924e+01 -5.773585302525e-01 +8.991446363411e+00
 8.00000000e+00 -5.592712121303e-01 +8.520332410422e+00 -1.240635922874e+01 -7.960026376109e+01 -1.240635922875e+01 -7.960026376109e+01 -5.599469776410e-01 +8.518704309321e+00
 8.10000000e+00 -5.425732850961e-01 +8.052482612021e+00 -1.264911998430e+01 -8.006245912929e+01 -1.264911998430e+01 -8.006245912929e+01 -5.432537616978e-01 +8.050858448006e+00
 8.20000000e+00 -5.265671915227e-01 +7.589381734939e+00 -1.289621221538e+01 -8.051854677917e+01 -1.289621221538e+01 -8.051854677917e+01 -5.272524794047e-01 +7.587764363458e+00
 8.30000000e+00 -5.112278629111e-01 +7.130889852789e+00 -1.314787771735e+01 -8.096859273874e+01 -1.314787771735e+01 -8.096859273874e+01 -5.119180592529e-01 +7.129282144554e+00
 8.40000000e+00 -4.965314866271e-01 +6.676871390731e+00 -1.340437630137e+01 -8.141264972773e+01 -1.340437630137e+01 -8.141264972774e+01 -4.972266858389e-01 +6.675276232032e+00
 8.50000000e+00 -4.824554353569e-01 +6.227194976634e+00 -1.366598761737e+01 -8.185075622019e+01 -1.366598761737e+01 -8.185075622019e+01 -4.831557293223e-01 +6.225615269707e+00
 8.60000000e+00 -4.689782010808e-01 +5.781733296518e+00 -1.393301322115e+01 -8.228293532235e+01 -1.393301322115e+01 -8.228293532235e+01 -4.696836793977e-01 +5.780171959983e+00
 8.70000000e+00 -4.560793332417e-01 +5.340362954296e+00 -1.420577892524e+01 -8.270919343164e+01 -1.420577892524e+01 -8.270919343164e+01 -4.567900834631e-01 +5.338822923651e+00
 8.80000000e+00 -4.437393808168e-01 +4.902964335808e+00 -1.448463748042e+01 -8.312951863467e+01 -1.448463748042e+01 -8.312951863467e+01 -4.444554886904e-01 +4.901448563993e+00
 8.90000000e+00 -4.319398380195e-01 +4.469421477115e+00 -1.476997164474e+01 -8.354387879232e+01 -1.476997164474e+01 -8.354387879232e+01 -4.326613877245e-01 +4.467932935155e+00
 9.00000000e+00 -4.206630933811e-01 +4.039621937027e+00 -1.506219770802e+01 -8.395221924765e+01 -1.506219770802e+01 -8.395221924765e+01 -4.213901677624e-01 +4.038163614743e+00
 9.10000000e+00 -4.098923819796e-01 +3.613456673795e+00 -1.536176955499e+01 -8.435446007621e+01 -1.536176955499e+01 -8.435446007621e+01 -4.106250627780e-01 +3.612031580590e+00
 9.20000000e+00 -3.996117406012e-01 +3.190819925907e+00 -1.566918336788e+01 -8.475049277807e+01 -1.566918336788e+01 -8.475049277808e+01 -4.003501086798e-01 +3.189431091636e+00
 9.30000000e+00 -3.898059656361e-01 +2.771609096916e+00 -1.598498309242e+01 -8.514017628401e+01 -1.598498309242e+01 -8.514017628401e+01 -3.905501012008e-01 +2.770259572820e+00
 9.40000000e+00 -3.804605735247e-01 +2.355724644206e+00 -1.630976682033e+01 -8.552333211374e+01 -1.630976682033e+01 -8.552333211375e+01 -3.812105563397e-01 +2.354417503932e+00
 9.50000000e+00 -3.715617635834e-01 +1.943069971616e+00 -1.664419427802e+01 -8.589973847817e+01 -1.664419427802e+01 -8.589973847817e+01 -3.723176731798e-01 +1.941808312307e+00
 9.60000000e+00 -3.630963830521e-01 +1.533551325824e+00 -1.698899565937e+01 -8.626912305680e+01 -1.698899565937e+01 -8.626912305681e+01 -3.638582989298e-01 +1.532338269282e+00
 9.70000000e+00 -3.550518942179e-01 +1.127077696397e+00 -1.734498210167e+01 -8.663115409982e+01 -1.734498210167e+01 -8.663115409982e+01 -3.558198960397e-01 +1.125916390316e+00
 9.80000000e+00 -3.474163434779e-01 +7.235607193954e-01 -1.771305818509e+01 -8.698542939370e+01 -1.771305818509e+01 -8.698542939370e+01 -3.481905112557e-01 +7.224543386657e-01
 9.90000000e+00 -3.401783322152e-01 +3.229145844460e-01 -1.809423694247e+01 -8.733146247793e+01 -1.809423694247e+01 -8.733146247794e+01 -3.409587464877e-01 +3.218663325250e-01
 1.00000000e+01 -3.333269893720e-01 -7.494405482888e-02 -1.848965800858e+01 -8.766866529039e+01 -1.848965800858e+01 -8.766866529039e+01 -3.341137313734e-01 -7.593094448470e-02
 1.01000000e+01 -3.268519456093e-01 -4.700961671294e-01 -1.890060972997e+01 -8.799632612509e+01 -1.890060972997e+01 -8.799632612510e+01 -3.276450974286e-01 -4.710184295691e-01
 1.02000000e+01 -3.207433089532e-01 -8.626204266421e-01 -1.932855631815e+01 -8.831358136800e+01 -1.932855631815e+01 -8.831358136800e+01 -3.215429536839e-01 -8.634747638694e-01
 1.03000000e+01 -3.149916418329e-01 -1.252593293154e+00 -1.977517149053e+01 -8.861937887399e+01 -1.977517149053e+01 -8.861937887399e+01 -3.157978637130e-01 -1.253376372518e+00
 1.04000000e+01 -3.095879394239e-01 -1.640089089218e+00 -2.024238054938e+01 -8.891242996622e+01 -2.024238054938e+01 -8.891242996623e+01 -3.104008239648e-01 -1.640797541757e+00
 1.05000000e+01 -3.045236092124e-01 -2.025180074468e+00 -2.073241356871e+01 -8.919114572499e+01 -2.073241356871e+01 -8.919114572499e+01 -3.053432433188e-01 -2.025810493200e+00
 1.06000000e+01 -2.997904517086e-01 -2.407936517183e+00 -2.124787339731e+01 -8.945355123960e+01 -2.124787339731e+01 -8.945355123961e+01 -3.006169237864e-01 -2.408485455354e+00
 1.07000000e+01 -2.953806422345e-01 -2.788426763194e+00 -2.179182371317e+01 -8.969716840887e+01 -2.179182371317e+01 -8.969716840887e+01 -2.962140422888e-01 -2.788890732482e+00
 1.08000000e+01 -2.912867137222e-01 -3.166717302230e+00 -2.236790465292e+01 -8.991885298339e+01 -2.236790465292e+01 -8.991885298339e+01 -2.921271334446e-01 -3.167092770915e+00
 1.09000000e+01 -2.875015404614e-01 -3.542872831793e+00 -2.298048704472e+01 -9.011456359483e+01 -2.298048704472e+01 -9.011456359484e+01 -2.883490733054e-01 -3.543156222884e+00
 1.10000000e+01 -2.840183227366e-01 -3.916956318657e+00 -2.363488177126e+01 -9.027902723653e+01 -2.363488177126e+01 -9.027902723654e+01 -2.848730639835e-01 -3.917144007991e+00
 1.11000000e+01 -2.808305723030e-01 -4.289029058058e+00 -2.433762964906e+01 -9.040524275609e+01 -2.433762964906e+01 -9.040524275610e+01 -2.816926191158e-01 -4.289117372369e+00
 1.12000000e+01 -2.779320986491e-01 -4.659150730696e+00 -2.509691192396e+01 -9.048372298211e+01 -2.509691192396e+01 -9.048372298212e+01 -2.788015501161e-01 -4.659135945657e+00
 1.13000000e+01 -2.753169960005e-01 -5.027379457590e+00 -2.592314676931e+01 -9.050129987019e+01 -2.592314676931e+01 -9.050129987020e+01 -2.761939531675e-01 -5.027257795827e+00
 1.14000000e+01 -2.729796310197e-01 -5.393771852895e+00 -2.682988236188e+01 -9.043916820479e+01 -2.682988236188e+01 -9.043916820480e+01 -2.738641969126e-01 -5.393539481988e+00
 1.15000000e+01 -2.709146311632e-01 -5.758383074746e+00 -2.783518157893e+01 -9.026953623151e+01 -2.783518157893e+01 -9.026953623152e+01 -2.718069107980e-01 -5.758036105202e+00
 1.16000000e+01 -2.691168736551e-01 -6.121266874199e+00 -2.896385970178e+01 -8.994957472939e+01 -2.896385970178e+01 -8.994957472941e+01 -2.700169740393e-01 -6.120801357416e+00
 1.17000000e+01 -2.675814750441e-01 -6.482475642358e+00 -3.025128463362e+01 -8.940974152264e+01 -3.025128463362e+01 -8.940974152265e+01 -2.684895051667e-01 -6.481887568569e+00
 1.18000000e+01 -2.663037813083e-01 -6.842060455735e+00 -3.175023129433e+01 -8.852931243897e+01 -3.175023129433e+01 -8.852931243898e+01 -2.672198521193e-01 -6.841345751945e+00
 1.19000000e+01 -2.652793584771e-01 -7.200071119923e+00 -3.354418777900e+01 -8.707931533026e+01 -3.354418777900e+01 -8.707931533028e+01 -2.662035828575e-01 -7.199225647834e+00
 1.20000000e+01 -2.645039837416e-01 -7.556556211655e+00 -3.577555809760e+01 -8.456888389843e+01 -3.577555809760e+01 -8.456888389846e+01 -2.654364764634e-01 -7.555575765583e+00
 1.21000000e+01 -2.639736370254e-01 -7.911563119285e+00 -3.871092159314e+01 -7.973880525378e+01 -3.871092159315e+01 -7.973880525381e+01 -2.649145147009e-01 -7.910443424071e+00
 1.22000000e+01 -2.636844929895e-01 -8.265138081777e+00 -4.287926719727e+01 -6.832293221736e+01 -4.287926719728e+01 -6.832293221743e+01 -2.646338740122e-01 -8.263874790695e+00
 1.23000000e+01 -2.636329134477e-01 -8.617326226249e+00 -4.832860716342e+01 -3.075483008490e+01 -4.832860716344e+01 -3.075483008491e+01 -2.645909179230e-01 -8.615914918907e+00
 1.24000000e+01 -2.638154401701e-01 -8.968171604123e+00 -4.632021321120e+01 +3.423887791136e+01 -4.632021321121e+01 +3.423887791145e+01 -2.647821898375e-01 -8.966607784369e+00
 1.25000000e+01 -2.642287880530e-01 -9.317717225943e+00 -4.114831750034e+01 +5.718387234844e+01 -4.114831750035e+01 +5.718387234849e+01 -2.652044061980e-01 -9.315996319764e+00
 1.26000000e+01 -2.648698386347e-01 -9.666005094907e+00 -3.758619109815e+01 +6.510400903119e+01 -3.758619109815e+01 +6.510400903122e+01 -2.658544499934e-01 -9.664122448336e+00
 1.27000000e+01 -2.657356339396e-01 -1.001307623917e+01 -3.501133012077e+01 +6.879877123060e+01 -3.501133012077e+01 +6.879877123063e+01 -2.667293645936e-01 -1.001102711618e+01
 1.28000000e+01 -2.668233706319e-01 -1.035897074294e+01 -3.301578592380e+01 +7.082279868596e+01 -3.301578592379e+01 +7.082279868598e+01 -2.678263478956e-01 -1.035675032338e+01
 1.29000000e+01 -2.681303944632e-01 -1.070372777646e+01 -3.139276481579e+01 +7.202829924539e+01 -3.139276481579e+01 +7.202829924541e+01 -2.691427467622e-01 -1.070133115393e+01
 1.30000000e+01 -2.696541949976e-01 -1.104738562489e+01 -3.002759062872e+01 +7.277454868552e+01 -3.002759062872e+01 +7.277454868553e+01 -2.706760517393e-01 -1.104480780466e+01
 1.31000000e+01 -2.713924006000e-01 -1.138998171607e+01 -2.885089310768e+01 +7.323817621583e+01 -2.885089310768e+01 +7.323817621585e+01 -2.724238920369e-01 -1.138721761304e+01
 1.32000000e+01 -2.733427736750e-01 -1.173155264738e+01 -2.781774434480e+01 +7.351586504482e+01 -2.781774434480e+01 +7.351586504483e+01 -2.743840307595e-01 -1.172859708397e+01
 1.33000000e+01 -2.755032061399e-01 -1.207213421152e+01 -2.689746008066e+01 +7.366489515866e+01 -2.689746008066e+01 +7.366489515867e+01 -2.765543603722e-01 -1.206898191560e+01
 1.34000000e+01 -2.778717151249e-01 -1.241176142140e+01 -2.606818533298e+01 +7.372132435784e+01 -2.606818533298e+01 +7.372132435785e+01 -2.789328983941e-01 -1.240840702425e+01
 1.35000000e+01 -2.804464388839e-01 -1.275046853412e+01 -2.531381750067e+01 +7.370896627781e+01 -2.531381750067e+01 +7.370896627782e+01 -2.815177833010e-01 -1.274690656833e+01
 1.36000000e+01 -2.832256329084e-01 -1.308828907406e+01 -2.462215743417e+01 +7.364417130445e+01 -2.462215743417e+01 +7.364417130446e+01 -2.843072706333e-01 -1.308451397154e+01
 1.37000000e+01 -2.862076662328e-01 -1.342525585516e+01 -2.398374585435e+01 +7.353853182965e+01 -2.398374585435e+01 +7.353853182966e+01 -2.872997292941e-01 -1.342126194505e+01
 1.38000000e+01 -2.893910179220e-01 -1.376140100238e+01 -2.339110216110e+01 +7.340049138186e+01 -2.339110216110e+01 +7.340049138187e+01 -2.904936380306e-01 -1.375718250903e+01
 1.39000000e+01 -2.927742737323e-01 -1.409675597238e+01 -2.283820983961e+01 +7.323634262891e+01 -2.283820983961e+01 +7.323634262892e+01 -2.938875820880e-01 -1.409230701329e+01
 1.40000000e+01 -2.963561229363e-01 -1.443135157345e+01 -2.232015862368e+01 +7.305086873923e+01 -2.232015862368e+01 +7.305086873924e+01 -2.974802500292e-01 -1.442666615727e+01
