#  GHZ S DB R 50.0
 1.00000000e-02 -2.697436044142e+01 +3.319936911124e+00 -3.974572598909e-01 -1.871298812347e-01 -3.974572598905e-01 -1.871298812308e-01 -2.697448303530e+01 +3.326191361253e+00
 2.00000000e-02 -2.692970911742e+01 +6.493004390035e+00 -3.976968401190e-01 -3.682394143749e-01 -3.976968401189e-01 -3.682394143727e-01 -2.692977479242e+01 +6.496595442682e+00
 1.00000000e-01 -2.570955959846e+01 +2.927461019366e+01 -4.042748708124e-01 -1.826444460107e+00 -4.042748708125e-01 -1.826444460107e+00 -2.570903633580e+01 +2.927656702012e+01
 2.00000000e-01 -2.320419173971e+01 +4.742372281297e+01 -4.233527063909e-01 -3.629119665557e+00 -4.233527063910e-01 -3.629119665557e+00 -2.320323962304e+01 +4.741973171153e+01
 3.00000000e-01 -2.077284564511e+01 +5.703053324058e+01 -4.520000384834e-01 -5.398892425284e+00 -4.520000384834e-01 -5.398892425284e+00 -2.077232239495e+01 +5.702086006810e+01
 4.00000000e-01 -1.869871594187e+01 +6.205525106339e+01 -4.880394612171e-01 -7.137202264042e+00 -4.880394612171e-01 -7.137202264042e+00 -1.869890739188e+01 +6.204319608810e+01
 5.00000000e-01 -1.695971078178e+01 +6.463283034475e+01 -5.303834421555e-01 -8.849297886680e+00 -5.303834421556e-01 -8.849297886679e+00 -1.696054060414e+01 +6.462086273088e+01
 6.00000000e-01 -1.549011263459e+01 +6.582818946772e+01 -5.786736641020e-01 -1.053934300800e+01 -5.786736641020e-01 -1.053934300800e+01 -1.549140315838e+01 +6.581757609247e+01
 7.00000000e-01 -1.423172765853e+01 +6.619729070052e+01 -6.328465809905e-01 -1.220941154514e+01 -6.328465809905e-01 -1.220941154514e+01 -1.423330739097e+01 +6.618849506251e+01
 8.00000000e-01 -1.313997150129e+01 +6.604797315156e+01 -6.928952092625e-01 -1.385999708783e+01 -6.928952092624e-01 -1.385999708783e+01 -1.314170526266e+01 +6.604101897528e+01
 9.00000000e-01 -1.218167502152e+01 +6.556042642747e+01 -7.587797562426e-01 -1.549069022147e+01 -7.587797562426e-01 -1.549069022147e+01 -1.218346571953e+01 +6.555512643965e+01
 1.00000000e+00 -1.133209845568e+01 +6.484552730010e+01 -8.304081223089e-01 -1.710065928663e+01 -8.304081223089e-01 -1.710065928663e+01 -1.133388055944e+01 +6.484161173769e+01
 1.10000000e+00 -1.057253969710e+01 +6.397457866173e+01 -9.076414438308e-01 -1.868893259782e+01 -9.076414438308e-01 -1.868893259782e+01 -1.057427150900e+01 +6.397176297079e+01
 1.20000000e+00 -9.888619288453e+00 +6.299522763608e+01 -9.903057557069e-01 -2.025454898834e+01 -9.903057557069e-01 -2.025454898834e+01 -9.890276209517e+00 +6.299324556671e+01
 1.30000000e+00 -9.269086666782e+00 +6.194038082322e+01 -1.078203199123e+00 -2.179663210854e+01 -1.078203199123e+00 -2.179663210854e+01 -9.270655921430e+00 +6.193899842964e+01
 1.40000000e+00 -8.704991095625e+00 +6.083341040012e+01 -1.171121066677e+00 -2.331442312123e+01 -1.171121066677e+00 -2.331442312123e+01 -8.706467815121e+00 +6.083242983866e+01
 1.50000000e+00 -8.189100687590e+00 +5.969131279621e+01 -1.268838636501e+00 -2.480729143554e+01 -1.268838636501e+00 -2.480729143554e+01 -8.190485099595e+00 +5.969057096509e+01
 1.60000000e+00 -7.715489654791e+00 +5.852669307548e+01 -1.371132195138e+00 -2.627473418056e+01 -1.371132195138e+00 -2.627473418056e+01 -7.716785118935e+00 +5.852605792272e+01
 1.70000000e+00 -7.279240490405e+00 +5.734905155550e+01 -1.477778688231e+00 -2.771637015099e+01 -1.477778688231e+00 -2.771637015099e+01 -7.280452157377e+00 +5.734841760078e+01
 1.80000000e+00 -6.876225645947e+00 +5.616564210858e+01 -1.588558363789e+00 -2.913193126477e+01 -1.588558363789e+00 -2.913193126477e+01 -6.877359564250e+00 +5.616492598529e+01
 1.90000000e+00 -6.502944994693e+00 +5.498205959424e+01 -1.703256683916e+00 -3.052125312567e+01 -1.703256683916e+00 -3.052125312567e+01 -6.504007532051e+00 +5.498119599571e+01
 2.00000000e+00 -6.156403039183e+00 +5.380265128153e+01 -1.821665705596e+00 -3.188426550565e+01 -1.821665705596e+00 -3.188426550565e+01 -6.157400520929e+00 +5.380158945888e+01
 2.10000000e+00 -5.834014861755e+00 +5.263081104734e+01 -1.943585073843e+00 -3.322098314454e+01 -1.943585073843e+00 -3.322098314454e+01 -5.834953356040e+00 +5.262951188051e+01
 2.20000000e+00 -5.533533164743e+00 +5.146919374255e+01 -2.068822728791e+00 -3.453149704261e+01 -2.068822728791e+00 -3.453149704261e+01 -5.534418365084e+00 +5.146762734323e+01
 2.30000000e+00 -5.252990998030e+00 +5.031987408372e+01 -2.197195398650e+00 -3.581596630677e+01 -2.197195398650e+00 -3.581596630677e+01 -5.253828168888e+00 +5.031801786268e+01
 2.40000000e+00 -4.990656305898e+00 +4.918446628581e+01 -2.328528929533e+00 -3.707461055426e+01 -2.328528929533e+00 -3.707461055426e+01 -4.991450267867e+00 +4.918230341077e+01
 2.50000000e+00 -4.744995485574e+00 +4.806421544623e+01 -2.462658488643e+00 -3.830770285284e+01 -2.462658488643e+00 -3.830770285284e+01 -4.745750624438e+00 +4.806173361981e+01
 2.60000000e+00 -4.514643893023e+00 +4.696006829068e+01 -2.599428667273e+00 -3.951556316774e+01 -2.599428667273e+00 -3.951556316774e+01 -4.515364182346e+00 +4.695725878626e+01
 2.70000000e+00 -4.298381759551e+00 +4.587272862679e+01 -2.738693503199e+00 -4.069855228506e+01 -2.738693503199e+00 -4.069855228506e+01 -4.299070790082e+00 +4.586958552965e+01
 2.80000000e+00 -4.095114362712e+00 +4.480270131620e+01 -2.880316437367e+00 -4.185706618393e+01 -2.880316437367e+00 -4.185706618393e+01 -4.095775374434e+00 +4.479922092655e+01
 2.90000000e+00 -3.903855571944e+00 +4.375032751779e+01 -3.024170216613e+00 -4.299153083362e+01 -3.024170216613e+00 -4.299153083362e+01 -3.904491486216e+00 +4.374650788090e+01
 3.00000000e+00 -3.723714093447e+00 +4.271581321522e+01 -3.170136752010e+00 -4.410239739455e+01 -3.170136752010e+00 -4.410239739455e+01 -3.724327543791e+00 +4.271165375080e+01
 3.10000000e+00 -3.553881890932e+00 +4.169925251804e+01 -3.318106940906e+00 -4.519013780495e+01 -3.318106940906e+00 -4.519013780495e+01 -3.554475251710e+00 +4.169475372727e+01
 3.20000000e+00 -3.393624373348e+00 +4.070064685020e+01 -3.467980459674e+00 -4.625524073639e+01 -3.467980459674e+00 -4.625524073639e+01 -3.394199786012e+00 +4.069581008319e+01
 3.30000000e+00 -3.242272027693e+00 +3.971992086780e+01 -3.619665533370e+00 -4.729820790198e+01 -3.619665533370e+00 -4.729820790198e+01 -3.242831424557e+00 +3.971474813845e+01
 3.40000000e+00 -3.099213241640e+00 +3.875693574879e+01 -3.773078687855e+00 -4.831955070129e+01 -3.773078687855e+00 -4.831955070129e+01 -3.099758367254e+00 +3.875142958684e+01
 3.50000000e+00 -2.963888112183e+00 +3.781150035061e+01 -3.928144489365e+00 -4.931978718605e+01 -3.928144489365e+00 -4.931978718605e+01 -2.964420542491e+00 +3.780566368291e+01
 3.60000000e+00 -2.835783076535e+00 +3.688338062206e+01 -4.084795276035e+00 -5.029943932983e+01 -4.084795276035e+00 -5.029943932983e+01 -2.836304236021e+00 +3.687721667703e+01
 3.70000000e+00 -2.714426232868e+00 +3.597230757329e+01 -4.242970885397e+00 -5.125903058487e+01 -4.242970885397e+00 -5.125903058487e+01 -2.714937409888e+00 +3.596581980390e+01
 3.80000000e+00 -2.599383243183e+00 +3.507798404590e+01 -4.402618381445e+00 -5.219908370856e+01 -4.402618381445e+00 -5.219908370856e+01 -2.599885603701e+00 +3.507117606737e+01
 3.90000000e+00 -2.490253730188e+00 +3.420009047674e+01 -4.563691784439e+00 -5.312011884196e+01 -4.563691784439e+00 -5.312011884196e+01 -2.490748330087e+00 +3.419296601632e+01
 4.00000000e+00 -2.386668095678e+00 +3.333828981294e+01 -4.726151806216e+00 -5.402265182252e+01 -4.726151806216e+00 -5.402265182252e+01 -2.387155891815e+00 +3.333085266940e+01
 4.10000000e+00 -2.288284700429e+00 +3.249223170656e+01 -4.889965593422e+00 -5.490719271324e+01 -4.889965593422e+00 -5.490719271324e+01 -2.288766560581e+00 +3.248448571759e+01
 4.20000000e+00 -2.194787355686e+00 +3.166155609492e+01 -5.055106480728e+00 -5.577424453094e+01 -5.055106480728e+00 -5.577424453094e+01 -2.195264067518e+00 +3.165350511124e+01
 4.30000000e+00 -2.105883084533e+00 +3.084589625506e+01 -5.221553755767e+00 -5.662430215642e+01 -5.221553755767e+00 -5.662430215642e+01 -2.106355363677e+00 +3.083754411985e+01
 4.40000000e+00 -2.021300118021e+00 +3.004488140609e+01 -5.389292437278e+00 -5.745785141016e+01 -5.389292437278e+00 -5.745785141015e+01 -2.021768615386e+00 +3.003623193909e+01
 4.50000000e+00 -1.940786096436e+00 +2.925813892207e+01 -5.558313067669e+00 -5.827536827757e+01 -5.558313067669e+00 -5.827536827757e+01 -1.941251404806e+00 +2.924919590738e+01
 4.60000000e+00 -1.864106450490e+00 +2.848529620850e+01 -5.728611520999e+00 -5.907731826903e+01 -5.728611520999e+00 -5.907731826903e+01 -1.864569110501e+00 +2.847606338562e+01
 4.70000000e+00 -1.791042940972e+00 +2.772598228763e+01 -5.900188827217e+00 -5.986415590011e+01 -5.900188827217e+00 -5.986415590011e+01 -1.791503446511e+00 +2.771646334516e+01
 4.80000000e+00 -1.721392338421e+00 +2.697982913169e+01 -6.073051013309e+00 -6.063632427898e+01 -6.073051013309e+00 -6.063632427898e+01 -1.721851141509e+00 +2.697002770323e+01
 4.90000000e+00 -1.654965226937e+00 +2.624647277745e+01 -6.247208961917e+00 -6.139425478830e+01 -6.247208961917e+00 -6.139425478830e+01 -1.655422742140e+00 +2.623639243939e+01
 5.00000000e+00 -1.591584918425e+00 +2.552555425130e+01 -6.422678287877e+00 -6.213836685020e+01 -6.422678287877e+00 -6.213836685020e+01 -1.592041526839e+00 +2.551519852217e+01
 5.10000000e+00 -1.531086465323e+00 +2.481672032991e+01 -6.599479233067e+00 -6.286906776355e+01 -6.599479233067e+00 -6.286906776355e+01 -1.531542518158e+00 +2.480609267096e+01
 5.20000000e+00 -1.473315761415e+00 +2.411962415842e+01 -6.777636579915e+00 -6.358675260364e+01 -6.777636579915e+00 -6.358675260364e+01 -1.473771583230e+00 +2.410872797527e+01
 5.30000000e+00 -1.418128721637e+00 +2.343392574533e+01 -6.957179583908e+00 -6.429180417541e+01 -6.957179583908e+00 -6.429180417541e+01 -1.418584613237e+00 +2.342276439046e+01
 5.40000000e+00 -1.365390532845e+00 +2.275929235061e+01 -7.138141925413e+00 -6.498459301176e+01 -7.138141925413e+00 -6.498459301176e+01 -1.365846773880e+00 +2.274786912649e+01
 5.50000000e+00 -1.314974968524e+00 +2.209539878177e+01 -7.320561681220e+00 -6.566547740955e+01 -7.320561681220e+00 -6.566547740955e+01 -1.315431819813e+00 +2.208371694451e+01
 5.60000000e+00 -1.266763761168e+00 +2.144192761042e+01 -7.504481316168e+00 -6.633480349623e+01 -7.504481316168e+00 -6.633480349623e+01 -1.267221466771e+00 +2.142999037379e+01
 5.70000000e+00 -1.220646026829e+00 +2.079856932066e+01 -7.689947695387e+00 -6.699290532095e+01 -7.689947695387e+00 -6.699290532095e+01 -1.221104815885e+00 +2.078637986034e+01
 5.80000000e+00 -1.176517736883e+00 +2.016502239882e+01 -7.877012117678e+00 -6.764010496429e+01 -7.877012117678e+00 -6.764010496429e+01 -1.176977825245e+00 +2.015258385688e+01
 5.90000000e+00 -1.134281232657e+00 +1.954099337326e+01 -8.065730370746e+00 -6.827671266142e+01 -8.065730370746e+00 -6.827671266142e+01 -1.134742824329e+00 +1.952830886265e+01
 6.00000000e+00 -1.093844778963e+00 +1.892619681166e+01 -8.256162809059e+00 -6.890302693374e+01 -8.256162809059e+00 -6.890302693374e+01 -1.094308067371e+00 +1.891326942073e+01
 6.10000000e+00 -1.055122153052e+00 +1.832035528207e+01 -8.448374455315e+00 -6.951933472458e+01 -8.448374455315e+00 -6.951933472458e+01 -1.055587322154e+00 +1.830718807907e+01
 6.20000000e+00 -1.018032265819e+00 +1.772319928385e+01 -8.642435126612e+00 -7.012591153471e+01 -8.642435126612e+00 -7.012591153471e+01 -1.018499491076e+00 +1.770979532125e+01
 6.30000000e+00 -9.824988124225e-01 +1.713446715299e+01 -8.838419586678e+00 -7.072302155376e+01 -8.838419586678e+00 -7.072302155376e+01 -9.829682616466e-01 +1.712082947174e+01
 6.40000000e+00 -9.484499497737e-01 +1.655390494650e+01 -9.036407725690e+00 -7.131091778368e+01 -9.036407725690e+00 -7.131091778368e+01 -9.489217838588e-01 +1.654003658008e+01
 6.50000000e+00 -9.158179985735e-01 +1.598126630941e+01 -9.236484769489e+00 -7.188984215068e+01 -9.236484769489e+00 -7.188984215068e+01 -9.162923721286e-01 +1.596717028771e+01
 6.60000000e+00 -8.845391678219e-01 +1.541631232782e+01 -9.438741520306e+00 -7.246002560186e+01 -9.438741520306e+00 -7.246002560186e+01 -8.850162297159e-01 +1.540199168076e+01
 6.70000000e+00 -8.545532999082e-01 +1.485881137067e+01 -9.643274631424e+00 -7.302168818305e+01 -9.643274631424e+00 -7.302168818304e+01 -8.550331937366e-01 +1.484426913165e+01
 6.80000000e+00 -8.258036345704e-01 +1.430853892283e+01 -9.850186918581e+00 -7.357503909397e+01 -9.850186918581e+00 -7.357503909397e+01 -8.262864990543e-01 +1.429377813193e+01
 6.90000000e+00 -7.982365901716e-01 +1.376527741159e+01 -1.005958771138e+01 -7.412027671691e+01 -1.005958771138e+01 -7.412027671691e+01 -7.987225594979e-01 +1.375030111852e+01
 7.00000000e+00 -7.718015608802e-01 +1.322881602833e+01 -1.027159324845e+01 -7.465758861458e+01 -1.027159324845e+01 -7.465758861458e+01 -7.722907649908e-01 +1.321362729519e+01
 7.10000000e+00 -7.464507284698e-01 +1.269895054702e+01 -1.048632712067e+01 -7.518715149267e+01 -1.048632712067e+01 -7.518715149267e+01 -7.469432933081e-01 +1.268355245084e+01
 7.20000000e+00 -7.221388875700e-01 +1.217548314090e+01 -1.070392076745e+01 -7.570913112214e+01 -1.070392076745e+01 -7.570913112214e+01 -7.226349352902e-01 +1.215987877588e+01
 7.30000000e+00 -6.988232832996e-01 +1.165822219835e+01 -1.092451403181e+01 -7.622368221541e+01 -1.092451403181e+01 -7.622368221541e+01 -6.993229324461e-01 +1.164241467802e+01
 7.40000000e+00 -6.764634603106e-01 +1.114698213916e+01 -1.114825578091e+01 -7.673094825022e+01 -1.114825578091e+01 -7.673094825022e+01 -6.769668259721e-01 +1.113097459825e+01
 7.50000000e+00 -6.550211223520e-01 +1.064158323183e+01 -1.137530459974e+01 -7.723106123373e+01 -1.137530459974e+01 -7.723106123373e+01 -6.555283162951e-01 +1.062537882799e+01
 7.60000000e+00 -6.344600015432e-01 +1.014185141263e+01 -1.160582956670e+01 -7.772414139834e+01 -1.160582956670e+01 -7.772414139834e+01 -6.349711323296e-01 +1.012545332799e+01
 7.70000000e+00 -6.147457366091e-01 +9.647618107105e+00 -1.184001112169e+01 -7.821029681939e+01 -1.184001112169e+01 -7.821029681939e+01 -6.152609097007e-01 +9.631029549710e+00
 7.80000000e+00 -5.958457594008e-01 +9.158720054395e+00 -1.207804203833e+01 -7.868962294301e+01 -1.207804203833e+01 -7.868962294300e+01 -5.963650772548e-01 +9.141944259412e+00
 7.90000000e+00 -5.777291890728e-01 +8.674999134756e+00 -1.232012851466e+01 -7.916220201039e+01 -1.232012851466e+01 -7.916220201039e+01 -5.782527512302e-01 +8.658039365654e+00
 8.00000000e+00 -5.603667333466e-01 +8.196302200679e+00 -1.256649139833e+01 -7.962810236217e+01 -1.256649139833e+01 -7.962810236217e+01 -5.608946365162e-01 +8.179161750249e+00
 8.10000000e+00 -5.437305963361e-01 +7.722480911779e+00 -1.281736756565e+01 -8.008737760326e+01 -1.281736756565e+01 -8.008737760326e+01 -5.442629344755e-01 +7.705163103076e+00
 8.20000000e+00 -5.277943924486e-01 +7.253391573680e+00 -1.307301147703e+01 -8.054006560481e+01 -1.307301147703e+01 -8.054006560481e+01 -5.283312568439e-01 +7.235899760883e+00
 8.30000000e+00 -5.125330659205e-01 +6.788894981033e+00 -1.333369693515e+01 -8.098618731497e+01 -1.333369693515e+01 -8.098618731497e+01 -5.130745452664e-01 +6.771232550238e+00
 8.40000000e+00 -4.979228155797e-01 +6.328856264763e+00 -1.359971907771e+01 -8.142574534403e+01 -1.359971907771e+01 -8.142574534403e+01 -4.984689960594e-01 +6.311026634717e+00
 8.50000000e+00 -4.839410244556e-01 +5.873144743615e+00 -1.387139664184e+01 -8.185872228232e+01 -1.387139664184e+01 -8.185872228232e+01 -4.844919898231e-01 +5.855151366417e+00
 8.60000000e+00 -4.705661938955e-01 +5.421633780024e+00 -1.414907454509e+01 -8.228507869954e+01 -1.414907454509e+01 -8.228507869954e+01 -4.711220255590e-01 +5.403480141787e+00
 8.70000000e+00 -4.577778818640e-01 +4.974200640334e+00 -1.443312683652e+01 -8.270475076247e+01 -1.443312683652e+01 -8.270475076247e+01 -4.583386589717e-01 +4.955890261828e+00
 8.80000000e+00 -4.455566451347e-01 +4.530726359327e+00 -1.472396008254e+01 -8.311764739311e+01 -1.472396008254e+01 -8.311764739311e+01 -4.461224446625e-01 +4.512262796607e+00
 8.90000000e+00 -4.338839851000e-01 +4.091095609051e+00 -1.502201726551e+01 -8.352364686990e+01 -1.502201726551e+01 -8.352364686990e+01 -4.344548819414e-01 +4.072482454086e+00
 9.00000000e+00 -4.227422969509e-01 +3.655196571885e+00 -1.532778229064e+01 -8.392259275021e+01 -1.532778229064e+01 -8.392259275021e+01 -4.233183640086e-01 +3.636437453183e+00
 9.10000000e+00 -4.121148219932e-01 +3.222920817783e+00 -1.564178521748e+01 -8.431428896043e+01 -1.564178521748e+01 -8.431428896043e+01 -4.126961302722e-01 +3.204019401028e+00
 9.20000000e+00 -4.019856028869e-01 +2.794163185627e+00 -1.596460835956e+01 -8.469849385846e+01 -1.596460835956e+01 -8.469849385845e+01 -4.025722215892e-01 +2.775123174330e+00
 9.30000000e+00 -3.923394416114e-01 +2.368821668607e+00 -1.629689343023e+01 -8.507491301867e+01 -1.629689343023e+01 -8.507491301867e+01 -3.929314382310e-01 +2.349646804772e+00
 9.40000000e+00 -3.831618599715e-01 +1.946797303532e+00 -1.663934995647e+01 -8.544319041750e+01 -1.663934995647e+01 -8.544319041750e+01 -3.837593003904e-01 +1.927491368350e+00
 9.50000000e+00 -3.744390624762e-01 +1.527994063996e+00 -1.699276523964e+01 -8.580289760057e+01 -1.699276523964e+01 -8.580289760057e+01 -3.750420110596e-01 +1.508560878559e+00
 9.60000000e+00 -3.661579014316e-01 +1.112318757284e+00 -1.735801621627e+01 -8.615352028203e+01 -1.735801621627e+01 -8.615352028203e+01 -3.667664211238e-01 +1.092762183330e+00
 9.70000000e+00 -3.583058441034e-01 +6.996809249339e-01 -1.773608366985e+01 -8.649444164821e+01 -1.773608366985e+01 -8.649444164821e+01 -3.589199965215e-01 +6.800048656145e-01
 9.80000000e+00 -3.508709418123e-01 +2.899927468333e-01 -1.812806937430e+01 -8.682492139166e+01 -1.812806937430e+01 -8.682492139166e+01 -3.514907873394e-01 +2.702011475174e-01
 9.90000000e+00 -3.438418008378e-01 -1.168310512308e-01 -1.853521692414e+01 -8.714406915777e+01 -1.853521692414e+01 -8.714406915777e+01 -3.444673987146e-01 -1.367342021260e-01
 1.00000000e+01 -3.372075550132e-01 -5.208732866901e-01 -1.895893724313e+01 -8.745081059970e+01 -1.895893724313e+01 -8.745081059970e+01 -3.378389634267e-01 -5.408839568378e-01
 1.01000000e+01 -3.309578399038e-01 -9.222144060763e-01 -1.940084008823e+01 -8.774384353892e+01 -1.940084008823e+01 -8.774384353892e+01 -3.315951160744e-01 -9.423285183483e-01
 1.02000000e+01 -3.250827684668e-01 -1.320932567771e+00 -1.986277331888e+01 -8.802158071152e+01 -1.986277331888e+01 -8.802158071152e+01 -3.257259687321e-01 -1.341145999317e+00
 1.03000000e+01 -3.195729081004e-01 -1.717103721726e+00 -2.034687234063e+01 -8.828207407297e+01 -2.034687234063e+01 -8.828207407297e+01 -3.202220879966e-01 -1.737412303027e+00
 1.04000000e+01 -3.144192589944e-01 -2.110801686256e+00 -2.085562304970e+01 -8.852291336082e+01 -2.085562304970e+01 -8.852291336082e+01 -3.150744733338e-01 -2.131201200147e+00
 1.05000000e+01 -3.096132336993e-01 -2.502098222003e+00 -2.139194294250e+01 -8.874108811695e+01 -2.139194294250e+01 -8.874108811695e+01 -3.102745366452e-01 -2.522584402671e+00
 1.06000000e+01 -3.051466378427e-01 -2.891063103164e+00 -2.195928704133e+01 -8.893279687001e+01 -2.195928704133e+01 -8.893279687001e+01 -3.058140829802e-01 -2.911631635123e+00
 1.07000000e+01 -3.010116519169e-01 -3.277764186088e+00 -2.256178830100e+01 -8.909317831648e+01 -2.256178830100e+01 -8.909317831648e+01 -3.016852923206e-01 -3.298410703134e+00
 1.08000000e+01 -2.972008140767e-01 -3.662267475329e+00 -2.320444683350e+01 -8.921592466953e+01 -2.320444683350e+01 -8.921592466953e+01 -2.978807023747e-01 -3.682987559467e+00
 1.09000000e+01 -2.937070038839e-01 -4.044637187244e+00 -2.389338971689e+01 -8.929271231956e+01 -2.389338971689e+01 -8.929271231956e+01 -2.943931923179e-01 -4.065426367601e+00
 1.10000000e+01 -2.905234269406e-01 -4.424935811225e+00 -2.463623529848e+01 -8.931234077434e+01 -2.463623529848e+01 -8.931234077434e+01 -2.912159674230e-01 -4.445789562946e+00
 1.11000000e+01 -2.876436003607e-01 -4.803224168664e+00 -2.544261638342e+01 -8.925938977439e+01 -2.544261638342e+01 -8.925938977438e+01 -2.883425445276e-01 -4.824137911786e+00
 1.12000000e+01 -2.850613390255e-01 -5.179561469711e+00 -2.632495247066e+01 -8.911204890241e+01 -2.632495247065e+01 -8.911204890241e+01 -2.857667382872e-01 -5.200530568026e+00
 1.13000000e+01 -2.827707425823e-01 -5.554005367926e+00 -2.729962618913e+01 -8.883845957251e+01 -2.729962618913e+01 -8.883845957251e+01 -2.834826481697e-01 -5.575025127831e+00
 1.14000000e+01 -2.807661831365e-01 -5.926612012897e+00 -2.838884251307e+01 -8.839023387733e+01 -2.838884251307e+01 -8.839023387732e+01 -2.814846461446e-01 -5.947677682229e+00
 1.15000000e+01 -2.790422936004e-01 -6.297436100895e+00 -2.962369553644e+01 -8.769025471219e+01 -2.962369553644e+01 -8.769025471219e+01 -2.797673650297e-01 -6.318542867755e+00
 1.16000000e+01 -2.775939566604e-01 -6.666530923651e+00 -3.104948494191e+01 -8.660792667164e+01 -3.104948494191e+01 -8.660792667164e+01 -2.783256874544e-01 -6.687673915216e+00
 1.17000000e+01 -2.764162943244e-01 -7.033948415310e+00 -3.273546367268e+01 -8.490398314909e+01 -3.273546367268e+01 -8.490398314909e+01 -2.771547354055e-01 -7.055122696640e+00
 1.18000000e+01 -2.755046580184e-01 -7.399739197649e+00 -3.479372471020e+01 -8.209129449211e+01 -3.479372471020e+01 -8.209129449210e+01 -2.762498603212e-01 -7.420939770478e+00
 1.19000000e+01 -2.748546192002e-01 -7.763952623615e+00 -3.741624777674e+01 -7.702160488561e+01 -3.741624777674e+01 -7.702160488560e+01 -2.756066337030e-01 -7.785174425135e+00
 1.20000000e+01 -2.744619604607e-01 -8.126636819237e+00 -4.092244874232e+01 -6.637392230356e+01 -4.092244874231e+01 -6.637392230354e+01 -2.752208382149e-01 -8.147874720876e+00
 1.21000000e+01 -2.743226670854e-01 -8.487838724005e+00 -4.529893861930e+01 -3.862525734216e+01 -4.529893861929e+01 -3.862525734216e+01 -2.750884592439e-01 -8.509087530191e+00
 1.22000000e+01 -2.744329190513e-01 -8.847604129736e+00 -4.577147946091e+01 +1.603390294185e+01 -4.577147946091e+01 +1.603390294183e+01 -2.752056768949e-01 -8.868858576654e+00
 1.23000000e+01 -2.747890834325e-01 -9.205977718012e+00 -4.148847912594e+01 +4.737894155444e+01 -4.148847912593e+01 +4.737894155441e+01 -2.755688583957e-01 -9.227232472356e+00
 1.24000000e+01 -2.753877071952e-01 -9.563003096242e+00 -3.789638666467e+01 +5.920319321802e+01 -3.789638666467e+01 +5.920319321801e+01 -2.761745508914e-01 -9.584252753946e+00
 1.25000000e+01 -2.762255103582e-01 -9.918722832383e+00 -3.523197430131e+01 +6.470361698639e+01 -3.523197430131e+01 +6.470361698638e+01 -2.770194746041e-01 -9.939961917351e+00
 1.26000000e+01 -2.772993795001e-01 -1.027317848839e+01 -3.316318723018e+01 +6.771827976497e+01 -3.316318723018e+01 +6.771827976496e+01 -2.781005163396e-01 -1.029440145122e+01
 1.27000000e+01 -2.786063615944e-01 -1.062641065245e+01 -3.148469788018e+01 +6.953715619068e+01 -3.148469788018e+01 +6.953715619067e+01 -2.794147233226e-01 -1.064761186911e+01
 1.28000000e+01 -2.801436581542e-01 -1.097845897000e+01 -3.007720545795e+01 +7.069590662236e+01 -3.007720545795e+01 +7.069590662235e+01 -2.809592973414e-01 -1.099963274055e+01
 1.29000000e+01 -2.819086196706e-01 -1.132936217366e+01 -2.886754392562e+01 +7.145367613480e+01 -2.886754392562e+01 +7.145367613480e+01 -2.827315891871e-01 -1.135050272091e+01
 1.30000000e+01 -2.838987403295e-01 -1.167915811200e+01 -2.780816532853e+01 +7.195035529592e+01 -2.780816532853e+01 +7.195035529592e+01 -2.847290933701e-01 -1.170025958019e+01
 1.31000000e+01 -2.861116529910e-01 -1.202788377737e+01 -2.686660885298e+01 +7.226786565451e+01 -2.686660885298e+01 +7.226786565451e+01 -2.869494431005e-01 -1.204894023076e+01
 1.32000000e+01 -2.885451244186e-01 -1.237557533257e+01 -2.601979731537e+01 +7.245728132550e+01 -2.601979731537e+01 +7.245728132550e+01 -2.893904055181e-01 -1.239658075413e+01
 1.33000000e+01 -2.911970507450e-01 -1.272226813670e+01 -2.525076839992e+01 +7.255206184776e+01 -2.525076839992e+01 +7.255206184776e+01 -2.920498771594e-01 -1.274321642666e+01
 1.34000000e+01 -2.940654531623e-01 -1.306799676995e+01 -2.454670413051e+01 +7.257502467497e+01 -2.454670413051e+01 +7.257502467497e+01 -2.949258796485e-01 -1.308888174442e+01
 1.35000000e+01 -2.971484738247e-01 -1.341279505757e+01 -2.389769001461e+01 +7.254225422843e+01 -2.389769001461e+01 +7.254225422843e+01 -2.980165556012e-01 -1.343361044708e+01
 1.36000000e+01 -3.004443719539e-01 -1.375669609295e+01 -2.329590389482e+01 +7.246540835784e+01 -2.329590389482e+01 +7.246540835784e+01 -3.013201647316e-01 -1.377743554099e+01
 1.37000000e+01 -3.039515201354e-01 -1.409973225986e+01 -2.273506836290e+01 +7.235313872794e+01 -2.273506836290e+01 +7.235313872793e+01 -3.048350801502e-01 -1.412038932136e+01
 1.38000000e+01 -3.076684007982e-01 -1.444193525386e+01 -2.221007065436e+01 +7.221199792669e+01 -2.221007065436e+01 +7.221199792669e+01 -3.085597848444e-01 -1.446250339372e+01
 1.39000000e+01 -3.115936028668e-01 -1.478333610304e+01 -2.171669230853e+01 +7.204703718171e+01 -2.171669230853e+01 +7.204703718171e+01 -3.124928683325e-01 -1.480380869453e+01
 1.40000000e+01 -3.157258185783e-01 -1.512396518789e+01 -2.125141274689e+01 +7.186221106596e+01 -2.125141274689e+01 +7.186221106595e+01 -3.166330234823e-01 -1.514433551109e+01
