#  GHZ S DB R 50.0
 1.00000000e-02 -2.696627654606e+01 +3.287692899636e+00 -3.980327028172e-01 -1.830577896233e-01 -3.980327028173e-01 -1.830577896197e-01 -2.696392623444e+01 +3.263431955236e+00
 2.00000000e-02 -2.692193695145e+01 +6.490110977293e+00 -3.982377297409e-01 -3.661774819089e-01 -3.982377297409e-01 -3.661774819070e-01 -2.691962950725e+01 +6.476391622897e+00
 1.00000000e-01 -2.569430972810e+01 +2.934543261373e+01 -4.046814976952e-01 -1.826926562127e+00 -4.046814976952e-01 -1.826926562126e+00 -2.569261392949e+01 +2.933426944392e+01
 2.00000000e-01 -2.317948625101e+01 +4.748058872555e+01 -4.235819379118e-01 -3.631580935518e+00 -4.235819379118e-01 -3.631580935518e+00 -2.317873630607e+01 +4.746718696695e+01
 3.00000000e-01 -2.074586459349e+01 +5.705497563277e+01 -4.520710362864e-01 -5.403866231394e+00 -4.520710362864e-01 -5.403866231394e+00 -2.074586375870e+01 +5.704130269643e+01
 4.00000000e-01 -1.867248988205e+01 +6.205939791296e+01 -4.880145624228e-01 -7.144930478555e+00 -4.880145624228e-01 -7.144930478555e+00 -1.867308414651e+01 +6.204644628995e+01
 5.00000000e-01 -1.693489930440e+01 +6.462710772709e+01 -5.303172602443e-01 -8.859696415099e+00 -5.303172602443e-01 -8.859696415099e+00 -1.693596061689e+01 +6.461557022302e+01
 6.00000000e-01 -1.546668065128e+01 +6.581842492102e+01 -5.785969302109e-01 -1.055216513424e+01 -5.785969302109e-01 -1.055216513424e+01 -1.546808310089e+01 +6.580872473760e+01
 7.00000000e-01 -1.420951798189e+01 +6.618654334688e+01 -6.327686709202e-01 -1.222435796424e+01 -6.327686709202e-01 -1.222435796424e+01 -1.421114548466e+01 +6.617883877230e+01
 8.00000000e-01 -1.311884435329e+01 +6.603794053180e+01 -6.928100143566e-01 -1.387676363657e+01 -6.928100143566e-01 -1.387676363657e+01 -1.312059957022e+01 +6.603219052075e+01
 9.00000000e-01 -1.216152554861e+01 +6.555215845252e+01 -7.586701993185e-01 -1.550898485623e+01 -7.586701993185e-01 -1.550898485623e+01 -1.216333287432e+01 +6.554819949525e+01
 1.00000000e+00 -1.131284861605e+01 +6.483975213249e+01 -8.302490990608e-01 -1.712020770893e+01 -8.302490990608e-01 -1.712020770893e+01 -1.131465289931e+01 +6.483735999893e+01
 1.10000000e+00 -1.055412879822e+01 +6.397184833275e+01 -9.074017868771e-01 -1.870948004570e+01 -9.074017868771e-01 -1.870948004570e+01 -1.055589214762e+01 +6.397078009085e+01
 1.20000000e+00 -9.870997496508e+00 +6.299598468942e+01 -9.899496547638e-01 -2.027586042790e+01 -9.899496547637e-01 -2.027586042790e+01 -9.872695634115e+00 +6.299600430221e+01
 1.30000000e+00 -9.252211198030e+00 +6.194499096602e+01 -1.077691285646e+00 -2.181849140733e+01 -1.077691285646e+00 -2.181849140733e+01 -9.253830072360e+00 +6.194588315388e+01
 1.40000000e+00 -8.688824149594e+00 +6.084218054231e+01 -1.170411247012e+00 -2.333663145439e+01 -1.170411247012e+00 -2.333663145439e+01 -8.690357083370e+00 +6.084375692740e+01
 1.50000000e+00 -8.173608373180e+00 +5.970450271951e+01 -1.267886709974e+00 -2.482966517723e+01 -1.267886709974e+00 -2.482966517723e+01 -8.175053799293e+00 +5.970660322153e+01
 1.60000000e+00 -7.700641429537e+00 +5.854452417148e+01 -1.369892282789e+00 -2.629710255233e+01 -1.369892282789e+00 -2.629710255233e+01 -7.702001167459e+00 +5.854701569684e+01
 1.70000000e+00 -7.265008834300e+00 +5.737171401196e+01 -1.476203499676e+00 -2.773857287358e+01 -1.476203499676e+00 -2.773857287358e+01 -7.266286821113e+00 +5.737448777150e+01
 1.80000000e+00 -6.862585820603e+00 +5.619330105634e+01 -1.586599332780e+00 -2.915381640243e+01 -1.586599332780e+00 -2.915381640243e+01 -6.863787204325e+00 +5.619626934423e+01
 1.90000000e+00 -6.489874816420e+00 +5.501486038604e+01 -1.700864003936e+00 -3.054267524336e+01 -1.700864003936e+00 -3.054267524336e+01 -6.491005327272e+00 +5.501795331030e+01
 2.00000000e+00 -6.143882638856e+00 +5.384072396009e+01 -1.818788294748e+00 -3.190508419625e+01 -1.818788294748e+00 -3.190508419625e+01 -6.144948167537e+00 +5.384388639157e+01
 2.10000000e+00 -5.822026427696e+00 +5.267427404100e+01 -1.940170494236e+00 -3.324106193295e+01 -1.940170494236e+00 -3.324106193295e+01 -5.823032753984e+00 +5.267746290617e+01
 2.20000000e+00 -5.522060675625e+00 +5.151815683974e+01 -2.064817080622e+00 -3.455070263884e+01 -2.064817080622e+00 -3.455070263884e+01 -5.523013303629e+00 +5.152133879787e+01
 2.30000000e+00 -5.242019956348e+00 +5.037444075645e+01 -2.192543203977e+00 -3.583416815949e+01 -2.192543203977e+00 -3.583416815949e+01 -5.242924023629e+00 +5.037759025347e+01
 2.40000000e+00 -4.980173482198e+00 +4.924473544652e+01 -2.323173016046e+00 -3.709168064742e+01 -2.323173016046e+00 -3.709168064742e+01 -4.981033718735e+00 +4.924783311295e+01
 2.50000000e+00 -4.734988681482e+00 +4.813028272851e+01 -2.456539879713e+00 -3.832351568704e+01 -2.456539879713e+00 -3.832351568704e+01 -4.735809401205e+00 +4.813331407837e+01
 2.60000000e+00 -4.505101728453e+00 +4.703202694347e+01 -2.592486481457e+00 -3.952999587291e+01 -2.592486481457e+00 -3.952999587291e+01 -4.505886841138e+00 +4.703498132886e+01
 2.70000000e+00 -4.289293486856e+00 +4.595067010530e+01 -2.730864864033e+00 -4.071148481868e+01 -2.730864864033e+00 -4.071148481868e+01 -4.290046521938e+00 +4.595353988355e+01
 2.80000000e+00 -4.086469708406e+00 +4.488671564315e+01 -2.871536392751e+00 -4.186838157803e+01 -2.871536392751e+00 -4.186838157803e+01 -4.087193845000e+00 +4.488949551806e+01
 2.90000000e+00 -3.895644605016e+00 +4.384050347735e+01 -3.014371666104e+00 -4.300111546248e+01 -3.014371666104e+00 -4.300111546248e+01 -3.896342704345e+00 +4.384318998118e+01
 3.00000000e+00 -3.715927118182e+00 +4.281223843053e+01 -3.159250379838e+00 -4.411014124337e+01 -3.159250379838e+00 -4.411014124337e+01 -3.716601756020e+00 +4.281482951870e+01
 3.10000000e+00 -3.546509361533e+00 +4.180201345234e+01 -3.306061152369e+00 -4.519593472665e+01 -3.306061152369e+00 -4.519593472665e+01 -3.547162859183e+00 +4.180450818777e+01
 3.20000000e+00 -3.386656827379e+00 +4.080982876210e+01 -3.454701318617e+00 -4.625898868904e+01 -3.454701318617e+00 -4.625898868904e+01 -3.387291280372e+00 +4.081222707020e+01
 3.30000000e+00 -3.235700035339e+00 +3.983560774284e+01 -3.605076698660e+00 -4.729980916385e+01 -3.605076698660e+00 -4.729980916385e+01 -3.236317339448e+00 +3.983791022201e+01
 3.40000000e+00 -3.093027367944e+00 +3.887921022304e+01 -3.757101347013e+00 -4.831891206362e+01 -3.757101347013e+00 -4.831891206362e+01 -3.093629242415e+00 +3.888141799844e+01
 3.50000000e+00 -2.958078889702e+00 +3.794044363650e+01 -3.910697287817e+00 -4.931682012544e+01 -3.910697287817e+00 -4.931682012544e+01 -2.958666897740e+00 +3.794255824746e+01
 3.60000000e+00 -2.830340986167e+00 +3.701907244271e+01 -4.065794240699e+00 -5.029406016379e+01 -4.065794240699e+00 -5.029406016379e+01 -2.830916552858e+00 +3.702109575610e+01
 3.70000000e+00 -2.709341690965e+00 +3.611482610874e+01 -4.222329341589e+00 -5.125116061441e+01 -4.222329341589e+00 -5.125116061441e+01 -2.709906118830e+00 +3.611676025232e+01
 3.80000000e+00 -2.594646593375e+00 +3.522740589235e+01 -4.380246862265e+00 -5.218864935211e+01 -4.380246862265e+00 -5.218864935211e+01 -2.595201075814e+00 +3.522925320329e+01
 3.90000000e+00 -2.485855238663e+00 +3.435649061872e+01 -4.539497931966e+00 -5.310705176463e+01 -4.539497931966e+00 -5.310705176463e+01 -2.486400871520e+00 +3.435825360377e+01
 4.00000000e+00 -2.382597948932e+00 +3.350174160732e+01 -4.700040263950e+00 -5.400688906454e+01 -4.700040263950e+00 -5.400688906454e+01 -2.383135740418e+00 +3.350342291159e+01
 4.10000000e+00 -2.284533004716e+00 +3.266280687686e+01 -4.861837889472e+00 -5.488867682092e+01 -4.861837889472e+00 -5.488867682092e+01 -2.285063883927e+00 +3.266440925914e+01
 4.20000000e+00 -2.191344137620e+00 +3.183932473427e+01 -5.024860901271e+00 -5.575292369305e+01 -5.024860901271e+00 -5.575292369305e+01 -2.191868961824e+00 +3.184085104711e+01
 4.30000000e+00 -2.102738292401e+00 +3.103092683605e+01 -5.189085208309e+00 -5.660013034846e+01 -5.189085208309e+00 -5.660013034846e+01 -2.103257853314e+00 +3.103238000928e+01
 4.40000000e+00 -2.018443623547e+00 +3.023724079596e+01 -5.354492303203e+00 -5.743078854860e+01 -5.354492303203e+00 -5.743078854860e+01 -2.018958652730e+00 +3.023862382270e+01
 4.50000000e+00 -1.938207696772e+00 +2.945789240181e+01 -5.521069043514e+00 -5.824538038584e+01 -5.521069043514e+00 -5.824538038584e+01 -1.938718870318e+00 +2.945920832622e+01
 4.60000000e+00 -1.861795870323e+00 +2.869250749464e+01 -5.688807447818e+00 -5.904437765658e+01 -5.688807447818e+00 -5.904437765658e+01 -1.862303812955e+00 +2.869375940083e+01
 4.70000000e+00 -1.788989834661e+00 +2.794071355582e+01 -5.857704507296e+00 -5.982824135608e+01 -5.857704507296e+00 -5.982824135608e+01 -1.789495123360e+00 +2.794190455765e+01
 4.80000000e+00 -1.719586292126e+00 +2.720214104125e+01 -6.027762013412e+00 -6.059742128146e+01 -6.027762013412e+00 -6.059742128146e+01 -1.720089459381e+00 +2.720327427264e+01
 4.90000000e+00 -1.653395760716e+00 +2.647642449639e+01 -6.198986402095e+00 -6.135235573056e+01 -6.198986402095e+00 -6.135235573056e+01 -1.653897297489e+00 +2.647750310212e+01
 5.00000000e+00 -1.590241488301e+00 +2.576320348129e+01 -6.371388614785e+00 -6.209347128492e+01 -6.371388614785e+00 -6.209347128492e+01 -1.590741846768e+00 +2.576423060815e+01
 5.10000000e+00 -1.529958465312e+00 +2.506212333102e+01 -6.544983976571e+00 -6.282118266652e+01 -6.544983976571e+00 -6.282118266652e+01 -1.530458061456e+00 +2.506310211942e+01
 5.20000000e+00 -1.472392525537e+00 +2.437283577343e+01 -6.719792091639e+00 -6.353589265842e+01 -6.719792091639e+00 -6.353589265842e+01 -1.472891741617e+00 +2.437376934940e+01
 5.30000000e+00 -1.417399525896e+00 +2.369499942345e+01 -6.895836756206e+00 -6.423799208063e+01 -6.895836756205e+00 -6.423799208063e+01 -1.417898712850e+00 +2.369589089126e+01
 5.40000000e+00 -1.364844597203e+00 +2.302828017067e+01 -7.073145889103e+00 -6.492785981306e+01 -7.073145889102e+00 -6.492785981306e+01 -1.365344076991e+00 +2.302913260609e+01
 5.50000000e+00 -1.314601458862e+00 +2.237235147476e+01 -7.251751480206e+00 -6.560586285838e+01 -7.251751480206e+00 -6.560586285838e+01 -1.315101526767e+00 +2.237316791913e+01
 5.60000000e+00 -1.266551791240e+00 +2.172689458147e+01 -7.431689556913e+00 -6.627235643814e+01 -7.431689556913e+00 -6.627235643814e+01 -1.267052718140e+00 +2.172767803671e+01
 5.70000000e+00 -1.220584660203e+00 +2.109159867045e+01 -7.613000168935e+00 -6.692768411634e+01 -7.613000168935e+00 -6.692768411634e+01 -1.221086694802e+00 +2.109235209502e+01
 5.80000000e+00 -1.176595988881e+00 +2.046616094452e+01 -7.795727391730e+00 -6.757217794489e+01 -7.795727391730e+00 -6.757217794489e+01 -1.177099359889e+00 +2.046688725053e+01
 5.90000000e+00 -1.134488072276e+00 +1.985028666898e+01 -7.979919348980e+00 -6.820615862634e+01 -7.979919348980e+00 -6.820615862634e+01 -1.134992990525e+00 +1.985098872038e+01
 6.00000000e+00 -1.094169130785e+00 +1.924368916844e+01 -8.165628254610e+00 -6.882993568922e+01 -8.165628254610e+00 -6.882993568922e+01 -1.094675791274e+00 +1.924436978029e+01
 6.10000000e+00 -1.055552899140e+00 +1.864608978753e+01 -8.352910474957e+00 -6.944380767229e+01 -8.352910474957e+00 -6.944380767229e+01 -1.056061482971e+00 +1.864675172647e+01
 6.20000000e+00 -1.018558247583e+00 +1.805721782143e+01 -8.541826611827e+00 -7.004806231385e+01 -8.541826611827e+00 -7.004806231385e+01 -1.019068923793e+00 +1.805786380706e+01
 6.30000000e+00 -9.831088324742e-01 +1.747681042091e+01 -8.732441607322e+00 -7.064297674297e+01 -8.732441607322e+00 -7.064297674297e+01 -9.836217597281e-01 +1.747744312815e+01
 6.40000000e+00 -9.491327737424e-01 +1.690461247641e+01 -8.924824871476e+00 -7.122881766938e+01 -8.924824871476e+00 -7.122881766938e+01 -9.496481018903e-01 +1.690523453866e+01
 6.50000000e+00 -9.165623568968e-01 +1.634037648483e+01 -9.119050433935e+00 -7.180584156943e+01 -9.119050433935e+00 -7.180584156943e+01 -9.170802283764e-01 +1.634099049772e+01
 6.60000000e+00 -8.853337574999e-01 +1.578386240227e+01 -9.315197121130e+00 -7.237429486527e+01 -9.315197121130e+00 -7.237429486527e+01 -8.858543085845e-01 +1.578447092805e+01
 6.70000000e+00 -8.553867862183e-01 +1.523483748566e+01 -9.513348760613e+00 -7.293441409471e+01 -9.513348760612e+00 -7.293441409471e+01 -8.559101481089e-01 +1.523544305786e+01
 6.80000000e+00 -8.266646527402e-01 +1.469307612567e+01 -9.713594414505e+00 -7.348642606947e+01 -9.713594414505e+00 -7.348642606947e+01 -8.271909525045e-01 +1.469368125401e+01
 6.90000000e+00 -7.991137470035e-01 +1.415835967301e+01 -9.916028644339e+00 -7.403054801919e+01 -9.916028644339e+00 -7.403054801919e+01 -7.996431083699e-01 +1.415896684842e+01
 7.00000000e+00 -7.726834363254e-01 +1.363047625997e+01 -1.012075180986e+01 -7.456698771888e+01 -1.012075180986e+01 -7.456698771888e+01 -7.732159803404e-01 +1.363108795958e+01
 7.10000000e+00 -7.473258771471e-01 +1.310922061881e+01 -1.032787040486e+01 -7.509594359718e+01 -1.032787040486e+01 -7.509594359718e+01 -7.478617227086e-01 +1.310983931080e+01
 7.20000000e+00 -7.229958402246e-01 +1.259439389823e+01 -1.053749743338e+01 -7.561760482291e+01 -1.053749743338e+01 -7.561760482291e+01 -7.235351045038e-01 +1.259502204652e+01
 7.30000000e+00 -6.996505481985e-01 +1.208580347922e+01 -1.074975283046e+01 -7.613215136702e+01 -1.074975283046e+01 -7.613215136702e+01 -7.001933469646e-01 +1.208644354787e+01
 7.40000000e+00 -6.772495245718e-01 +1.158326279110e+01 -1.096476393182e+01 -7.663975403666e+01 -1.096476393182e+01 -7.663975403666e+01 -6.777959724327e-01 +1.158391724841e+01
 7.50000000e+00 -6.557544532036e-01 +1.108659112869e+01 -1.118266599788e+01 -7.714057447821e+01 -1.118266599788e+01 -7.714057447821e+01 -6.563046637770e-01 +1.108726245099e+01
 7.60000000e+00 -6.351290475103e-01 +1.059561347131e+01 -1.140360279816e+01 -7.763476514511e+01 -1.140360279816e+01 -7.763476514511e+01 -6.356831335371e-01 +1.059630414634e+01
 7.70000000e+00 -6.153389286272e-01 +1.011016030399e+01 -1.162772726311e+01 -7.812246922612e+01 -1.162772726311e+01 -7.812246922612e+01 -6.158970020392e-01 +1.011087283407e+01
 7.80000000e+00 -5.963515118523e-01 +9.630067441695e+00 -1.185520221148e+01 -7.860382052890e+01 -1.185520221148e+01 -7.860382052890e+01 -5.969136838050e-01 +9.630804346419e+00
 7.90000000e+00 -5.781359007484e-01 +9.155175856599e+00 -1.208620116258e+01 -7.907894331280e+01 -1.208620116258e+01 -7.907894331280e+01 -5.787022816269e-01 +9.155939675322e+00
 8.00000000e+00 -5.606627883301e-01 +8.685331509023e+00 -1.232090924445e+01 -7.954795206402e+01 -1.232090924445e+01 -7.954795206402e+01 -5.612334877375e-01 +8.686124803000e+00
 8.10000000e+00 -5.439043648123e-01 +8.220385182068e+00 -1.255952421054e+01 -8.001095120467e+01 -1.255952421054e+01 -8.001095120467e+01 -5.444794915450e-01 +8.221210536354e+00
 8.20000000e+00 -5.278342314360e-01 +7.760192320264e+00 -1.280225757972e+01 -8.046803472605e+01 -1.280225757972e+01 -8.046803472605e+01 -5.284138934535e-01 +7.761052345365e+00
 8.30000000e+00 -5.124273199304e-01 +7.304612872317e+00 -1.304933591699e+01 -8.091928573435e+01 -1.304933591699e+01 -8.091928573435e+01 -5.130116243216e-01 +7.305510205642e+00
 8.40000000e+00 -4.976598172011e-01 +6.853511138078e+00 -1.330100227507e+01 -8.136477589484e+01 -1.330100227507e+01 -8.136477589484e+01 -4.982488701516e-01 +6.854448445203e+00
 8.50000000e+00 -4.835090948705e-01 +6.406755619804e+00 -1.355751782102e+01 -8.180456475755e+01 -1.355751782102e+01 -8.180456475755e+01 -4.841030016329e-01 +6.407735595584e+00
 8.60000000e+00 -4.699536433242e-01 +5.964218877723e+00 -1.381916367585e+01 -8.223869894410e+01 -1.381916367585e+01 -8.223869894410e+01 -4.705525081930e-01 +5.965244247278e+00
 8.70000000e+00 -4.569730099440e-01 +5.525777389943e+00 -1.408624300089e+01 -8.266721117086e+01 -1.408624300089e+01 -8.266721117086e+01 -4.575769362363e-01 +5.526850909533e+00
 8.80000000e+00 -4.445477412348e-01 +5.091311416669e+00 -1.435908337071e+01 -8.309011907808e+01 -1.435908337071e+01 -8.309011907808e+01 -4.451568312767e-01 +5.092435874483e+00
 8.90000000e+00 -4.326593285721e-01 +4.660704868703e+00 -1.463803948035e+01 -8.350742382776e+01 -1.463803948035e+01 -8.350742382776e+01 -4.332736836920e-01 +4.661883085583e+00
 9.00000000e+00 -4.212901573213e-01 +4.233845180184e+00 -1.492349624420e+01 -8.391910842446e+01 -1.492349624420e+01 -8.391910842446e+01 -4.219098778498e-01 +4.235080010296e+00
 9.10000000e+00 -4.104234590963e-01 +3.810623185509e+00 -1.521587235586e+01 -8.432513570189e+01 -1.521587235586e+01 -8.432513570189e+01 -4.110486443716e-01 +3.811917516970e+00
 9.20000000e+00 -4.000432669433e-01 +3.390933000344e+00 -1.551562439290e+01 -8.472544590420e+01 -1.551562439290e+01 -8.472544590420e+01 -4.006740153225e-01 +3.392289755832e+00
 9.30000000e+00 -3.901343732517e-01 +2.974671906683e+00 -1.582325156914e+01 -8.511995377264e+01 -1.582325156914e+01 -8.511995377264e+01 -3.907707821271e-01 +2.976094044019e+00
 9.40000000e+00 -3.806822902086e-01 +2.561740241822e+00 -1.613930126029e+01 -8.550854502441e+01 -1.613930126029e+01 -8.550854502441e+01 -3.813244560288e-01 +2.563230754551e+00
 9.50000000e+00 -3.716732126277e-01 +2.152041291197e+00 -1.646437545834e+01 -8.589107207976e+01 -1.646437545834e+01 -8.589107207976e+01 -3.723212309223e-01 +2.153603209164e+00
 9.60000000e+00 -3.630939829942e-01 +1.745481184961e+00 -1.679913834773e+01 -8.626734885278e+01 -1.679913834773e+01 -8.626734885278e+01 -3.637479484015e-01 +1.747117574887e+00
 9.70000000e+00 -3.549320585798e-01 +1.341968798214e+00 -1.714432524521e+01 -8.663714436663e+01 -1.714432524521e+01 -8.663714436663e+01 -3.555920648778e-01 +1.343682764284e+00
 9.80000000e+00 -3.471754804940e-01 +9.414156547791e-01 -1.750075320796e+01 -8.700017488181e+01 -1.750075320796e+01 -8.700017488181e+01 -3.478416206332e-01 +9.432103392385e-01
 9.90000000e+00 -3.398128445435e-01 +5.437358344250e-01 -1.786933369742e+01 -8.735609412697e+01 -1.786933369742e+01 -8.735609412697e+01 -3.404852106808e-01 +5.456144181886e-01
 1.00000000e+01 -3.328332737848e-01 +1.488458834243e-01 -1.825108779518e+01 -8.770448108688e+01 -1.825108779518e+01 -8.770448108688e+01 -3.335119573194e-01 +1.508115867006e-01
 1.01000000e+01 -3.262263926611e-01 -2.433352716484e-01 -1.864716461328e+01 -8.804482461453e+01 -1.864716461328e+01 -8.804482461452e+01 -3.269114842701e-01 -2.412791887161e-01
 1.02000000e+01 -3.199823026222e-01 -6.328864069885e-01 -1.905886373755e+01 -8.837650387162e+01 -1.905886373755e+01 -8.837650387162e+01 -3.206738922974e-01 -6.307366436641e-01
 1.03000000e+01 -3.140915591343e-01 -1.019884081601e+00 -1.948766281178e+01 -8.869876322747e+01 -1.948766281178e+01 -8.869876322747e+01 -3.147897362181e-01 -1.017637295880e+00
 1.04000000e+01 -3.085451499921e-01 -1.404402714414e+00 -1.993525174155e+01 -8.901067970624e+01 -1.993525174155e+01 -8.901067970624e+01 -3.092500032134e-01 -1.402055522330e+00
 1.05000000e+01 -3.033344748517e-01 -1.786514658558e+00 -2.040357551813e+01 -8.931112028140e+01 -2.040357551813e+01 -8.931112028140e+01 -3.040460923615e-01 -1.784063633472e+00
 1.06000000e+01 -2.984513259097e-01 -2.166290272922e+00 -2.089488840427e+01 -8.959868513507e+01 -2.089488840427e+01 -8.959868513508e+01 -2.991697953154e-01 -2.163731944789e+00
 1.07000000e+01 -2.938878696564e-01 -2.543797991064e+00 -2.141182329721e+01 -8.987163120634e+01 -2.141182329721e+01 -8.987163120634e+01 -2.946132780552e-01 -2.541128845691e+00
 1.08000000e+01 -2.896366296389e-01 -2.919104387588e+00 -2.195748166565e+01 -9.012776756831e+01 -2.195748166565e+01 -9.012776756831e+01 -2.903690636503e-01 -2.916320865865e+00
 1.09000000e+01 -2.856904701718e-01 -3.292274242062e+00 -2.253555183339e+01 -9.036430975517e+01 -2.253555183339e+01 -9.036430975517e+01 -2.864300159689e-01 -3.289372739182e+00
 1.10000000e+01 -2.820425809388e-01 -3.663370600583e+00 -2.315046703290e+01 -9.057767296547e+01 -2.315046703290e+01 -9.057767296547e+01 -2.827893242781e-01 -3.660347465241e+00
 1.11000000e+01 -2.786864624317e-01 -4.032454835056e+00 -2.380762039722e+01 -9.076317201530e+01 -2.380762039722e+01 -9.076317201530e+01 -2.794404886818e-01 -4.029306368637e+00
 1.12000000e+01 -2.756159121767e-01 -4.399586700287e+00 -2.451366335460e+01 -9.091457507027e+01 -2.451366335460e+01 -9.091457507026e+01 -2.763773063453e-01 -4.396309156032e+00
 1.13000000e+01 -2.728250117021e-01 -4.764824388969e+00 -2.527692940184e+01 -9.102342079885e+01 -2.527692940184e+01 -9.102342079885e+01 -2.735938584620e-01 -4.761413971125e+00
 1.14000000e+01 -2.703081142028e-01 -5.128224584621e+00 -2.610805204405e+01 -9.107793869338e+01 -2.610805204405e+01 -9.107793869338e+01 -2.710844979161e-01 -5.124677447581e+00
 1.15000000e+01 -2.680598328614e-01 -5.489842512589e+00 -2.702089394411e+01 -9.106127518070e+01 -2.702089394411e+01 -9.106127518070e+01 -2.688438376031e-01 -5.486154760011e+00
 1.16000000e+01 -2.660750297894e-01 -5.849731989154e+00 -2.803399533101e+01 -9.094844352875e+01 -2.803399533101e+01 -9.094844352875e+01 -2.668667393683e-01 -5.845899673065e+00
 1.17000000e+01 -2.643488055485e-01 -6.207945468827e+00 -2.917293100974e+01 -9.070078380491e+01 -2.917293100974e+01 -9.070078380491e+01 -2.651483035283e-01 -6.203964588713e+00
 1.18000000e+01 -2.628764892245e-01 -6.564534089909e+00 -3.047435063521e+01 -9.025519813594e+01 -3.047435063521e+01 -9.025519813594e+01 -2.636838589425e-01 -6.560400591790e+00
 1.19000000e+01 -2.616536290172e-01 -6.919547718371e+00 -3.199336174186e+01 -8.950137648519e+01 -3.199336174186e+01 -8.950137648518e+01 -2.624689536023e-01 -6.915257493856e+00
 1.20000000e+01 -2.606759833208e-01 -7.273034990115e+00 -3.381814394731e+01 -8.822796542218e+01 -3.381814394731e+01 -8.822796542218e+01 -2.614993457102e-01 -7.268583875447e+00
 1.21000000e+01 -2.599395122649e-01 -7.625043351696e+00 -3.610193291534e+01 -8.597461205381e+01 -3.610193291534e+01 -8.597461205380e+01 -2.607709952196e-01 -7.620427126776e+00
 1.22000000e+01 -2.594403696920e-01 -7.975619099542e+00 -3.914180424961e+01 -8.152655312961e+01 -3.914180424961e+01 -8.152655312961e+01 -2.602800558110e-01 -7.970833486939e+00
 1.23000000e+01 -2.591748955464e-01 -8.324807417740e+00 -4.357973156698e+01 -7.050502369039e+01 -4.357973156698e+01 -7.050502369042e+01 -2.600228672804e-01 -8.319848081686e+00
 1.24000000e+01 -2.591396086519e-01 -8.672652414449e+00 -4.971566480205e+01 -2.930601404555e+01 -4.971566480205e+01 -2.930601404558e+01 -2.599959483157e-01 -8.667514959812e+00
 1.25000000e+01 -2.593311998583e-01 -9.019197156975e+00 -4.664930798246e+01 +4.036600998261e+01 -4.664930798246e+01 +4.036600998260e+01 -2.601959896418e-01 -9.013877128221e+00
 1.26000000e+01 -2.597465255342e-01 -9.364483705581e+00 -4.118821547378e+01 +6.051893065402e+01 -4.118821547378e+01 +6.051893065400e+01 -2.606198475133e-01 -9.358976585711e+00
 1.27000000e+01 -2.603826013898e-01 -9.708553146055e+00 -3.761081943696e+01 +6.723712549660e+01 -3.761081943696e+01 +6.723712549660e+01 -2.612645375361e-01 -9.702854355531e+00
 1.28000000e+01 -2.612365966117e-01 -1.005144562111e+01 -3.504625230717e+01 +7.034643658307e+01 -3.504625230717e+01 +7.034643658307e+01 -2.621272288011e-01 -1.004555051676e+01
 1.29000000e+01 -2.623058282910e-01 -1.039320036064e+01 -3.306208409502e+01 +7.203379162159e+01 -3.306208409502e+01 +7.203379162159e+01 -2.632052383120e-01 -1.038710423453e+01
 1.30000000e+01 -2.635877561320e-01 -1.073385571088e+01 -3.144858465983e+01 +7.302333233682e+01 -3.144858465984e+01 +7.302333233682e+01 -2.644960256929e-01 -1.072755378919e+01
 1.31000000e+01 -2.650799774252e-01 -1.107344916254e+01 -3.009105703561e+01 +7.362046738162e+01 -3.009105703561e+01 +7.362046738162e+01 -2.659971881607e-01 -1.106693660441e+01
 1.32000000e+01 -2.667802222708e-01 -1.141201737787e+01 -2.892050016167e+01 +7.397562713521e+01 -2.892050016167e+01 +7.397562713521e+01 -2.677064557479e-01 -1.140528927421e+01
 1.33000000e+01 -2.686863490404e-01 -1.174959621683e+01 -2.789233192786e+01 +7.417132288685e+01 -2.789233192786e+01 +7.417132288685e+01 -2.696216867641e-01 -1.174264758913e+01
 1.34000000e+01 -2.707963400647e-01 -1.208622076226e+01 -2.697613545526e+01 +7.425653072059e+01 -2.697613545526e+01 +7.425653072059e+01 -2.717408634820e-01 -1.207904656135e+01
 1.35000000e+01 -2.731082975345e-01 -1.242192534416e+01 -2.615025424181e+01 +7.426213218339e+01 -2.615025424181e+01 +7.426213218339e+01 -2.740620880389e-01 -1.241452044898e+01
 1.36000000e+01 -2.756204396057e-01 -1.275674356313e+01 -2.539873254913e+01 +7.420855148222e+01 -2.539873254913e+01 +7.420855148221e+01 -2.765835785405e-01 -1.274910277945e+01
 1.37000000e+01 -2.783310966971e-01 -1.309070831297e+01 -2.470948087411e+01 +7.410982895225e+01 -2.470948087411e+01 +7.410982895225e+01 -2.793036653583e-01 -1.308282637209e+01
 1.38000000e+01 -2.812387079724e-01 -1.342385180243e+01 -2.407312286780e+01 +7.397592949498e+01 -2.407312286780e+01 +7.397592949498e+01 -2.822207876106e-01 -1.341572335985e+01
 1.39000000e+01 -2.843418179951e-01 -1.375620557624e+01 -2.348224153421e+01 +7.381411758226e+01 -2.348224153421e+01 +7.381411758226e+01 -2.853334898173e-01 -1.374782521033e+01
 1.40000000e+01 -2.876390735504e-01 -1.408780053538e+01 -2.293086981225e+01 +7.362981112808e+01 -2.293086981225e+01 +7.362981112808e+01 -2.886404187213e-01 -1.407916274598e+01
