#  GHZ S DB R 50.0
 1.00000000e-02 -3.823975107684e+01 +4.157064963337e+00 -1.067753714578e-01 -7.541684403018e-02 -1.067753714554e-01 -7.541684402914e-02 -3.823967840519e+01 +4.157080537748e+00
 2.00000000e-02 -3.815665081750e+01 +8.175397259047e+00 -1.070784458203e-01 -1.498105247904e-01 -1.070784458199e-01 -1.498105247915e-01 -3.815655513749e+01 +8.174715061729e+00
 5.00000000e-01 -2.691472382805e+01 +7.326812687245e+01 -1.557671053906e-01 -3.432153506837e+00 -1.557671053905e-01 -3.432153506837e+00 -2.691697061471e+01 +7.324169778752e+01
 1.00000000e+00 -2.087746747335e+01 +7.818864248322e+01 -2.202051571679e-01 -6.536641048732e+00 -2.202051571679e-01 -6.536641048732e+00 -2.088185762695e+01 +7.815706346273e+01
 1.50000000e+00 -1.731039290623e+01 +7.737586747802e+01 -2.884376890201e-01 -9.566899319180e+00 -2.884376890201e-01 -9.566899319180e+00 -1.731574979391e+01 +7.734408094061e+01
 2.00000000e+00 -1.481634915005e+01 +7.530134337774e+01 -3.683590454460e-01 -1.257188095123e+01 -3.683590454460e-01 -1.257188095123e+01 -1.482199586466e+01 +7.526757882411e+01
 2.50000000e+00 -1.291610057147e+01 +7.280243666688e+01 -4.633863730736e-01 -1.555286648621e+01 -4.633863730737e-01 -1.555286648621e+01 -1.292187514538e+01 +7.276517862806e+01
 3.00000000e+00 -1.139396617747e+01 +7.013454472711e+01 -5.747487827156e-01 -1.850383464288e+01 -5.747487827156e-01 -1.850383464288e+01 -1.139981961887e+01 +7.009305834995e+01
 3.50000000e+00 -1.013485699521e+01 +6.740055583078e+01 -7.027069631992e-01 -2.141808054417e+01 -7.027069631992e-01 -2.141808054417e+01 -1.014076614313e+01 +6.735441658414e+01
 4.00000000e+00 -9.070065097569e+00 +6.465024672644e+01 -8.470506710893e-01 -2.428958128068e+01 -8.470506710894e-01 -2.428958128068e+01 -9.076019702284e+00 +6.459916927989e+01
 4.50000000e+00 -8.155166629082e+00 +6.191106733172e+01 -1.007324206469e+00 -2.711326783154e+01 -1.007324206469e+00 -2.711326783154e+01 -8.161164047911e+00 +6.185485431600e+01
 5.00000000e+00 -7.359666808698e+00 +5.919963535465e+01 -1.182941553146e+00 -2.988503648929e+01 -1.182941553146e+00 -2.988503648929e+01 -7.365707992635e+00 +5.913815073291e+01
 5.50000000e+00 -6.661632683744e+00 +5.652664936105e+01 -1.373252648678e+00 -3.260169347505e+01 -1.373252648678e+00 -3.260169347505e+01 -6.667719715140e+00 +5.645979786038e+01
 6.00000000e+00 -6.044690068069e+00 +5.389922871188e+01 -1.577585685048e+00 -3.526088028631e+01 -1.577585685048e+00 -3.526088028631e+01 -6.050825016997e+00 +5.382694003448e+01
 6.50000000e+00 -5.496238927747e+00 +5.132213854009e+01 -1.795276216027e+00 -3.786099229767e+01 -1.795276216027e+00 -3.786099229767e+01 -5.502423525722e+00 +5.124435636231e+01
 7.00000000e+00 -5.006339600901e+00 +4.879848997197e+01 -2.025688109160e+00 -4.040109488430e+01 -2.025688109160e+00 -4.040109488430e+01 -5.012575312946e+00 +4.871516506037e+01
 7.50000000e+00 -4.566988647338e+00 +4.633017515136e+01 -2.268228933742e+00 -4.288083949232e+01 -2.268228933742e+00 -4.288083949232e+01 -4.573276870286e+00 +4.624126156552e+01
 8.00000000e+00 -4.171631238652e+00 +4.391815906220e+01 -2.522361279398e+00 -4.530038160840e+01 -2.522361279398e+00 -4.530038160840e+01 -4.177973477572e+00 +4.382361237296e+01
 8.50000000e+00 -3.814822607496e+00 +4.156268869433e+01 -2.787610981009e+00 -4.766030230918e+01 -2.787610981009e+00 -4.766030230918e+01 -3.821220573862e+00 +4.146246529614e+01
 9.00000000e+00 -3.491986491298e+00 +3.926345101216e+01 -3.063572965801e+00 -4.996153476670e+01 -3.063572965801e+00 -4.996153476670e+01 -3.498442125124e+00 +3.915750787450e+01
 9.50000000e+00 -3.199238499693e+00 +3.701969680050e+01 -3.349915297768e+00 -5.220529672789e+01 -3.349915297768e+00 -5.220529672789e+01 -3.205753944130e+00 +3.690799129398e+01
 1.00000000e+01 -2.933254058698e+00 +3.483034012561e+01 -3.646381908254e+00 -5.439302960418e+01 -3.646381908255e+00 -5.439302960418e+01 -2.939831617364e+00 +3.471282978862e+01
 1.05000000e+01 -2.691167682489e+00 +3.269403932092e+01 -3.952794439260e+00 -5.652634444379e+01 -3.952794439260e+00 -5.652634444379e+01 -2.697809779691e+00 +3.257068156394e+01
 1.10000000e+01 -2.470494740343e+00 +3.060926335206e+01 -4.269053575575e+00 -5.860697474930e+01 -4.269053575576e+00 -5.860697474930e+01 -2.477203892749e+00 +3.048001514332e+01
 1.15000000e+01 -2.269069702233e+00 +2.857434626774e+01 -4.595140199444e+00 -6.063673586096e+01 -4.595140199444e+00 -6.063673586096e+01 -2.275848502615e+00 +2.843916384183e+01
 1.20000000e+01 -2.084996682016e+00 +2.658753176556e+01 -4.931116666949e+00 -6.261749045548e+01 -4.931116666949e+00 -6.261749045548e+01 -2.091847792080e+00 +2.644637037751e+01
 1.25000000e+01 -1.916609317982e+00 +2.464700947531e+01 -5.277128479776e+00 -6.455111960053e+01 -5.277128479776e+00 -6.455111960053e+01 -1.923535466677e+00 +2.449982320487e+01
 1.30000000e+01 -1.762437857742e+00 +2.275094427339e+01 -5.633406610748e+00 -6.643949874699e+01 -5.633406610749e+00 -6.643949874699e+01 -1.769441842214e+00 +2.259768587369e+01
 1.35000000e+01 -1.621181884624e+00 +2.089749973187e+01 -6.000270738073e+00 -6.828447802038e+01 -6.000270738073e+00 -6.828447802038e+01 -1.628266572024e+00 +2.073812051263e+01
 1.40000000e+01 -1.491687522031e+00 +1.908485664267e+01 -6.378133653271e+00 -7.008786617853e+01 -6.378133653272e+00 -7.008786617853e+01 -1.498855851305e+00 +1.891930637795e+01
 1.45000000e+01 -1.372928236220e+00 +1.731122742263e+01 -6.767507133454e+00 -7.185141762375e+01 -6.767507133454e+00 -7.185141762375e+01 -1.380183219561e+00 +1.713945427520e+01
 1.50000000e+01 -1.263988562890e+00 +1.557486709183e+01 -7.169009612940e+00 -7.357682188606e+01 -7.169009612940e+00 -7.357682188606e+01 -1.271333286834e+00 +1.539681754844e+01
 1.55000000e+01 -1.164050233016e+00 +1.387408141818e+01 -7.583376056559e+00 -7.526569502165e+01 -7.583376056559e+00 -7.526569502165e+01 -1.171487859299e+00 +1.368970023174e+01
 1.60000000e+01 -1.072380284803e+00 +1.220723273493e+01 -8.011470533577e+00 -7.691957239142e+01 -8.011470533577e+00 -7.691957239142e+01 -1.079914051109e+00 +1.201646287122e+01
 1.65000000e+01 -9.883208324941e-01 +1.057274386137e+01 -8.454302126449e+00 -7.853990229160e+01 -8.454302126449e+00 -7.853990229160e+01 -9.959540532128e-01 +1.037552644871e+01
 1.70000000e+01 -9.112802267981e-01 +8.969100490691e+00 -8.913044995996e+00 -8.012803989534e+01 -8.913044995996e+00 -8.012803989534e+01 -9.190162938649e-01 +8.765374771717e+00
 1.75000000e+01 -8.407253910992e-01 +7.394852350829e+00 -9.389063684551e+00 -8.168524092004e+01 -9.389063684551e+00 -8.168524092004e+01 -8.485677749772e-01 +7.184555635687e+00
 1.80000000e+01 -7.761751563349e-01 +5.848613393909e+00 -9.883945101044e+00 -8.321265434873e+01 -9.883945101045e+00 -8.321265434873e+01 -7.841274071547e-01 +5.631681014532e+00
 1.85000000e+01 -7.171944479947e-01 +4.329061226644e+00 -1.039953914269e+01 -8.471131338276e+01 -1.039953914269e+01 -8.471131338276e+01 -7.252601968629e-01 +4.105426491777e+00
 1.90000000e+01 -6.633892031702e-01 +2.834935957117e+00 -1.093801063677e+01 -8.618212355668e+01 -1.093801063677e+01 -8.618212355668e+01 -6.715721636434e-01 +2.604530107848e+00
 1.95000000e+01 -6.144019153351e-01 +1.365038601919e+00 -1.150190634241e+01 -8.762584655151e+01 -1.150190634241e+01 -8.762584655151e+01 -6.227058850502e-01 +1.127790767498e+00
 2.00000000e+01 -5.699077206227e-01 -8.177082893000e-02 -1.209424231089e+01 -8.904307761254e+01 -1.209424231089e+01 -8.904307761254e+01 -5.783365830730e-01 -3.259336751900e-01
 2.05000000e+01 -5.296109525793e-01 -1.506575474150e+00 -1.271861924839e+01 -9.043421346156e+01 -1.271861924839e+01 -9.043421346156e+01 -5.381686790246e-01 -1.757728559084e+00
 2.10000000e+01 -4.932421032921e-01 -2.910403913976e+00 -1.337937713430e+01 -9.179940592669e+01 -1.337937713430e+01 -9.179940592669e+01 -5.019327547943e-01 -3.168624709057e+00
 2.15000000e+01 -4.605551378868e-01 -4.294232552549e+00 -1.408180604215e+01 -9.313849371015e+01 -1.408180604215e+01 -9.313849371015e+01 -4.693828674601e-01 -4.559600818834e+00
 2.20000000e+01 -4.313251169900e-01 -5.658988041742e+00 -1.483243935073e+01 -9.445089986317e+01 -1.483243935074e+01 -9.445089986317e+01 -4.402941718602e-01 -5.931585875420e+00
 2.25000000e+01 -4.053460881560e-01 -7.005549708808e+00 -1.563947101384e+01 -9.573547383772e+01 -1.563947101384e+01 -9.573547383772e+01 -4.144608121230e-01 -7.285461587490e+00
 2.30000000e+01 -3.824292126582e-01 -8.334751958841e+00 -1.651336546331e+01 -9.699024073529e+01 -1.651336546331e+01 -9.699024073529e+01 -3.916940485570e-01 -8.622064788732e+00
 2.35000000e+01 -3.624010986316e-01 -9.647386630123e+00 -1.746777750404e+01 -9.821198852665e+01 -1.746777750404e+01 -9.821198852665e+01 -3.718205908895e-01 -9.942189794183e+00
 2.40000000e+01 -3.451023154496e-01 -1.094420528609e+01 -1.852099251849e+01 -9.939555797444e+01 -1.852099251849e+01 -9.939555797444e+01 -3.546811127374e-01 -1.124659069331e+01
 2.45000000e+01 -3.303860675522e-01 -1.222592143229e+01 -1.969828522131e+01 -1.005325534429e+02 -1.969828522131e+01 -1.005325534429e+02 -3.401289255284e-01 -1.253598356815e+01
 2.50000000e+01 -3.181170087888e-01 -1.349321265037e+01 -2.103600335358e+01 -1.016088396502e+02 -2.103600335358e+01 -1.016088396502e+02 -3.280287929363e-01 -1.381104862861e+01
 2.55000000e+01 -3.081701807871e-01 -1.474672264399e+01 -2.258915178493e+01 -1.025992461751e+02 -2.258915178493e+01 -1.025992461751e+02 -3.182558693424e-01 -1.507243225979e+01
 2.60000000e+01 -3.004300609624e-01 -1.598706319410e+01 -2.444683197174e+01 -1.034550232385e+02 -2.444683197174e+01 -1.034550232385e+02 -3.106947479378e-01 -1.632074897868e+01
 2.65000000e+01 -2.947897075957e-01 -1.721481602247e+01 -2.676789449213e+01 -1.040690701704e+02 -2.676789449213e+01 -1.040690701704e+02 -3.052386058957e-01 -1.755658329924e+01
 2.70000000e+01 -2.911499909754e-01 -1.843053456410e+01 -2.988009034005e+01 -1.041538438039e+02 -2.988009034005e+01 -1.041538438039e+02 -3.017884356077e-01 -1.878049150646e+01
 2.75000000e+01 -2.894189009531e-01 -1.963474564999e+01 -3.465633633953e+01 -1.025939635457e+02 -3.465633633953e+01 -1.025939635457e+02 -3.002523523371e-01 -1.999300334076e+01
 2.80000000e+01 -2.895109224409e-01 -2.082795110263e+01 -4.533234837864e+01 -8.744893683465e+01 -4.533234837864e+01 -8.744893683463e+01 -3.005449698134e-01 -2.119462359528e+01
 2.85000000e+01 -2.913464713951e-01 -2.201062924718e+01 -4.145475358229e+01 +5.409697254463e+01 -4.145475358228e+01 +5.409697254463e+01 -3.025868363172e-01 -2.238583362881e+01
 2.90000000e+01 -2.948513847245e-01 -2.318323634158e+01 -3.344658298436e+01 +6.164528460574e+01 -3.344658298435e+01 +6.164528460574e+01 -3.063039246913e-01 -2.356709279785e+01
 2.95000000e+01 -2.999564583304e-01 -2.434620792934e+01 -2.937326663909e+01 +6.260848416844e+01 -2.937326663909e+01 +6.260848416844e+01 -3.116271704863e-01 -2.473883981127e+01
 3.00000000e+01 -3.065970281657e-01 -2.549996011870e+01 -2.664497472781e+01 +6.240968177158e+01 -2.664497472781e+01 +6.240968177158e+01 -3.184920531277e-01 -2.590149401148e+01
 3.05000000e+01 -3.147125897871e-01 -2.664489079203e+01 -2.459999246781e+01 +6.180642970074e+01 -2.459999246781e+01 +6.180642970074e+01 -3.268382155792e-01 -2.705545658588e+01
 3.10000000e+01 -3.242464523939e-01 -2.778138074941e+01 -2.296921951762e+01 +6.101854699071e+01 -2.296921951762e+01 +6.101854699071e+01 -3.366091184971e-01 -2.820111171255e+01
 3.15000000e+01 -3.351454237989e-01 -2.890979479021e+01 -2.161652051318e+01 +6.013310525570e+01 -2.161652051318e+01 +6.013310525570e+01 -3.477517253180e-01 -2.933882764392e+01
 3.20000000e+01 -3.473595231759e-01 -3.003048273647e+01 -2.046343877633e+01 +5.919137206842e+01 -2.046343877633e+01 +5.919137206842e+01 -3.602162151273e-01 -3.046895773235e+01
 3.25000000e+01 -3.608417187749e-01 -3.114378040166e+01 -1.946062430822e+01 +5.821534830048e+01 -1.946062430822e+01 +5.821534830048e+01 -3.739557204989e-01 -3.159184140118e+01
 3.30000000e+01 -3.755476881064e-01 -3.225001050858e+01 -1.857501439373e+01 +5.721777700293e+01 -1.857501439373e+01 +5.721777700293e+01 -3.889260878046e-01 -3.270780506482e+01
 3.35000000e+01 -3.914355983647e-01 -3.334948355967e+01 -1.778337514446e+01 +5.620650353995e+01 -1.778337514446e+01 +5.620650353995e+01 -4.050856577677e-01 -3.381716300141e+01
 3.40000000e+01 -4.084659050992e-01 -3.444249866306e+01 -1.706875687448e+01 +5.518658611295e+01 -1.706875687448e+01 +5.518658611295e+01 -4.223950642636e-01 -3.492021818120e+01
 3.45000000e+01 -4.266011673528e-01 -3.552934431763e+01 -1.641841578561e+01 +5.416140334931e+01 -1.641841578561e+01 +5.416140334931e+01 -4.408170495911e-01 -3.601726305397e+01
 3.50000000e+01 -4.458058776719e-01 -3.661029915990e+01 -1.582252947999e+01 +5.313327402700e+01 -1.582252947999e+01 +5.313327402700e+01 -4.603162946150e-01 -3.710858029839e+01
 3.55000000e+01 -4.660463055576e-01 -3.768563267586e+01 -1.527336817816e+01 +5.210382237889e+01 -1.527336817816e+01 +5.210382237889e+01 -4.808592623507e-01 -3.819444353620e+01
 3.60000000e+01 -4.872903530714e-01 -3.875560588028e+01 -1.476474044486e+01 +5.107420293912e+01 -1.476474044486e+01 +5.107420293911e+01 -5.024140537033e-01 -3.927511801412e+01
 3.65000000e+01 -5.095074214403e-01 -3.982047196637e+01 -1.429161107387e+01 +5.004524407019e+01 -1.429161107387e+01 +5.004524407019e+01 -5.249502742047e-01 -4.035086125589e+01
 3.70000000e+01 -5.326682876170e-01 -4.088047692805e+01 -1.384983070722e+01 +4.901754247255e+01 -1.384983070722e+01 +4.901754247255e+01 -5.484389107059e-01 -4.142192368722e+01
 3.75000000e+01 -5.567449898572e-01 -4.193586015750e+01 -1.343594014333e+01 +4.799152710578e+01 -1.343594014333e+01 +4.799152710578e+01 -5.728522170834e-01 -4.248854923585e+01
 3.80000000e+01 -5.817107214615e-01 -4.298685502015e+01 -1.304702587059e+01 +4.696750343916e+01 -1.304702587059e+01 +4.696750343916e+01 -5.981636081095e-01 -4.355097590918e+01
 3.85000000e+01 -6.075397319165e-01 -4.403368940939e+01 -1.268061153540e+01 +4.594568471423e+01 -1.268061153540e+01 +4.594568471423e+01 -6.243475607173e-01 -4.460943635166e+01
 3.90000000e+01 -6.342072347349e-01 -4.507658628321e+01 -1.233457512784e+01 +4.492621442996e+01 -1.233457512784e+01 +4.492621442996e+01 -6.513795219644e-01 -4.566415838411e+01
 3.95000000e+01 -6.616893213655e-01 -4.611576418475e+01 -1.200708490388e+01 +4.390918277184e+01 -1.200708490388e+01 +4.390918277184e+01 -6.792358230606e-01 -4.671536552704e+01
 4.00000000e+01 -6.899628805984e-01 -4.715143774895e+01 -1.169654917899e+01 +4.289463878443e+01 -1.169654917899e+01 +4.289463878443e+01 -7.078935988881e-01 -4.776327751005e+01
 4.05000000e+01 -7.190055229422e-01 -4.818381819717e+01 -1.140157654070e+01 +4.188259950202e+01 -1.140157654070e+01 +4.188259950202e+01 -7.373307124899e-01 -4.880811076931e+01
 4.10000000e+01 -7.487955094992e-01 -4.921311382176e+01 -1.112094399078e+01 +4.087305687244e+01 -1.112094399078e+01 +4.087305687244e+01 -7.675256840499e-01 -4.985007893493e+01
 4.15000000e+01 -7.793116849047e-01 -5.023953046252e+01 -1.085357119499e+01 +3.986598305804e+01 -1.085357119499e+01 +3.986598305804e+01 -7.984576239337e-01 -5.088939331041e+01
 4.20000000e+01 -8.105334139341e-01 -5.126327197698e+01 -1.059849948905e+01 +3.886133452847e+01 -1.059849948905e+01 +3.886133452847e+01 -8.301061693896e-01 -5.192626334576e+01
 4.25000000e+01 -8.424405214169e-01 -5.228454070628e+01 -1.035487462624e+01 +3.785905524360e+01 -1.035487462624e+01 +3.785905524360e+01 -8.624514245528e-01 -5.296089710644e+01
 4.30000000e+01 -8.750132351265e-01 -5.330353793878e+01 -1.012193249583e+01 +3.685907914467e+01 -1.012193249583e+01 +3.685907914467e+01 -8.954739034166e-01 -5.399350173993e+01
 4.35000000e+01 -9.082321313433e-01 -5.432046437299e+01 -9.898987221022e+00 +3.586133211405e+01 -9.898987221022e+00 +3.586133211405e+01 -9.291544754708e-01 -5.502428394172e+01
 4.40000000e+01 -9.420780828138e-01 -5.533552058213e+01 -9.685421178040e+00 +3.486573352383e+01 -9.685421178040e+00 +3.486573352383e+01 -9.634743137290e-01 -5.605345042297e+01
 4.45000000e+01 -9.765322088510e-01 -5.634890748201e+01 -9.480676578157e+00 +3.387219746357e+01 -9.480676578157e+00 +3.387219746357e+01 -9.984148448895e-01 -5.708120838146e+01
 4.50000000e+01 -1.011575827346e+00 -5.736082680438e+01 -9.284248330072e+00 +3.288063371613e+01 -9.284248330072e+00 +3.288063371613e+01 -1.033957701399e+00 -5.810776597810e+01
 4.55000000e+01 -1.047190408476e+00 -5.837148157793e+01 -9.095677958237e+00 +3.189094853463e+01 -9.095677958237e+00 +3.189094853463e+01 -1.070084675202e+00 -5.913333282108e+01
 4.60000000e+01 -1.083357529914e+00 -5.938107661892e+01 -8.914548397498e+00 +3.090304526145e+01 -8.914548397498e+00 +3.090304526145e+01 -1.106777672995e+00 -6.015812045969e+01
 4.65000000e+01 -1.120058833372e+00 -6.038981903396e+01 -8.740479519324e+00 +2.991682482152e+01 -8.740479519324e+00 +2.991682482151e+01 -1.144018672782e+00 -6.118234289023e+01
 4.70000000e+01 -1.157275982304e+00 -6.139791873711e+01 -8.573124272302e+00 +2.893218611525e+01 -8.573124272302e+00 +2.893218611525e+01 -1.181789681615e+00 -6.220621707636e+01
 4.75000000e+01 -1.194990620642e+00 -6.240558898398e+01 -8.412165341197e+00 +2.794902633141e+01 -8.412165341197e+00 +2.794902633141e+01 -1.220072694326e+00 -6.322996348635e+01
 4.80000000e+01 -1.233184332427e+00 -6.341304692544e+01 -8.257312246153e+00 +2.696724119603e+01 -8.257312246153e+00 +2.696724119603e+01 -1.258849653175e+00 -6.425380664995e+01
 4.85000000e+01 -1.271838602227e+00 -6.442051418376e+01 -8.108298817366e+00 +2.598672517093e+01 -8.108298817366e+00 +2.598672517093e+01 -1.298102408260e+00 -6.527797573771e+01
 4.90000000e+01 -1.310934776259e+00 -6.542821745434e+01 -7.964880991755e+00 +2.500737161260e+01 -7.964880991755e+00 +2.500737161260e+01 -1.337812678635e+00 -6.630270516572e+01
 4.95000000e+01 -1.350454024116e+00 -6.643638913611e+01 -7.826834887139e+00 +2.402907290075e+01 -7.826834887139e+00 +2.402907290075e+01 -1.377962014035e+00 -6.732823522915e+01
 5.00000000e+01 -1.390377301071e+00 -6.744526799437e+01 -7.693955116853e+00 +2.305172054442e+01 -7.693955116853e+00 +2.305172054442e+01 -1.418531757159e+00 -6.835481276791e+01
