#  GHZ S DB R 50.0
 1.00000000e-02 -3.651600118856e+01 +3.373425346074e+00 -1.304975930699e-01 -7.489808560952e-02 -1.304975930792e-01 -7.489808555073e-02 -3.651660691200e+01 +3.368930347582e+00
 2.00000000e-02 -3.647333831072e+01 +6.451058596232e+00 -1.306258857878e-01 -1.456550285277e-01 -1.306258857868e-01 -1.456550285306e-01 -3.647398277913e+01 +6.446076066462e+00
 5.00000000e-01 -2.673690443472e+01 +7.105378947481e+01 -1.724442225375e-01 -3.454601623263e+00 -1.724442225375e-01 -3.454601623263e+00 -2.673897050386e+01 +7.103224112686e+01
 1.00000000e+00 -2.070551942361e+01 +7.695423507971e+01 -2.386522970477e-01 -6.624461213615e+00 -2.386522970477e-01 -6.624461213616e+00 -2.070976403132e+01 +7.692326410779e+01
 1.50000000e+00 -1.715188397867e+01 +7.626195904648e+01 -3.132144829556e-01 -9.697979044799e+00 -3.132144829556e-01 -9.697979044799e+00 -1.715719961589e+01 +7.623010228363e+01
 2.00000000e+00 -1.468072800662e+01 +7.421512075551e+01 -4.004873625455e-01 -1.272393043738e+01 -4.004873625456e-01 -1.272393043738e+01 -1.468634757094e+01 +7.418118505623e+01
 2.50000000e+00 -1.280410332887e+01 +7.174109166827e+01 -5.026623837930e-01 -1.570958339990e+01 -5.026623837930e-01 -1.570958339990e+01 -1.280984321677e+01 +7.170346893684e+01
 3.00000000e+00 -1.130376189321e+01 +6.910676083966e+01 -6.205296932961e-01 -1.865340932446e+01 -6.205296932961e-01 -1.865340932446e+01 -1.130957838342e+01 +6.906472307434e+01
 3.50000000e+00 -1.006404228739e+01 +6.641449282426e+01 -7.541852339562e-01 -2.155180314640e+01 -7.541852339563e-01 -2.155180314640e+01 -1.006990983889e+01 +6.636765434844e+01
 4.00000000e+00 -9.016278537823e+00 +6.371193193575e+01 -9.033618765868e-01 -2.440093208207e+01 -9.033618765869e-01 -2.440093208207e+01 -9.022181894765e+00 +6.366000785485e+01
 4.50000000e+00 -8.116259417226e+00 +6.102462174414e+01 -1.067593547467e+00 -2.719733965508e+01 -1.067593547467e+00 -2.719733965508e+01 -8.122193853910e+00 +6.096739308415e+01
 5.00000000e+00 -7.333729809486e+00 +5.836770732748e+01 -1.246306310957e+00 -2.993815801064e+01 -1.246306310958e+00 -2.993815801064e+01 -7.339697058536e+00 +5.830501795866e+01
 5.50000000e+00 -6.646980931002e+00 +5.575077016710e+01 -1.438874591246e+00 -3.262116833610e+01 -1.438874591246e+00 -3.262116833610e+01 -6.652985043008e+00 +5.568251408180e+01
 6.00000000e+00 -6.039838098895e+00 +5.318007538359e+01 -1.644658508366e+00 -3.524479263079e+01 -1.644658508366e+00 -3.524479263079e+01 -6.045883151722e+00 +5.310617952855e+01
 6.50000000e+00 -5.499876906643e+00 +5.065973023767e+01 -1.863029814681e+00 -3.780805243712e+01 -1.863029814681e+00 -3.780805243712e+01 -5.505966249642e+00 +5.058014020091e+01
 7.00000000e+00 -5.017312454458e+00 +4.819233998743e+01 -2.093390403251e+00 -4.031051179110e+01 -2.093390403251e+00 -4.031051179110e+01 -5.023448728061e+00 +4.810701063269e+01
 7.50000000e+00 -4.584278140838e+00 +4.577941226159e+01 -2.335185688251e+00 -4.275221336346e+01 -2.335185688251e+00 -4.275221336346e+01 -4.590463544183e+00 +4.568830250387e+01
 8.00000000e+00 -4.194340435936e+00 +4.342162616237e+01 -2.587914280200e+00 -4.513361280400e+01 -2.587914280201e+00 -4.513361280400e+01 -4.200576993117e+00 +4.332469641393e+01
 8.50000000e+00 -3.842162196209e+00 +4.111902341238e+01 -2.851134900884e+00 -4.745551433066e+01 -2.851134900884e+00 -4.745551433066e+01 -3.848451941656e+00 +4.101623448966e+01
 9.00000000e+00 -3.523262604739e+00 +3.887115137460e+01 -3.124471218944e+00 -4.971900952037e+01 -3.124471218944e+00 -4.971900952037e+01 -3.529607685102e+00 +3.876246409373e+01
 9.50000000e+00 -3.233841795636e+00 +3.667717424311e+01 -3.407615136480e+00 -5.192542056193e+01 -3.407615136480e+00 -5.192542056193e+01 -3.240244510380e+00 +3.656254928109e+01
 1.00000000e+01 -2.970649899061e+00 +3.453596175702e+01 -3.700328964071e+00 -5.407624871840e+01 -3.700328964071e+00 -5.407624871840e+01 -2.977112703999e+00 +3.441535957751e+01
 1.05000000e+01 -2.730887304183e+00 +3.244616110563e+01 -4.002446857539e+00 -5.617312834581e+01 -4.002446857539e+00 -5.617312834581e+01 -2.737412796540e+00 +3.231954187066e+01
 1.10000000e+01 -2.512127331524e+00 +3.040625568168e+01 -4.313875840995e+00 -5.821778650363e+01 -4.313875840995e+00 -5.821778650363e+01 -2.518718228608e+00 +3.027357913047e+01
 1.15000000e+01 -2.312255310573e+00 +2.841461320617e+01 -4.634596701577e+00 -6.021200795847e+01 -4.634596701577e+00 -6.021200795847e+01 -2.318914428844e+00 +2.827583850691e+01
 1.20000000e+01 -2.129419888518e+00 +2.646952508441e+01 -4.964665010386e+00 -6.215760521833e+01 -4.964665010386e+00 -6.215760521833e+01 -2.136150126321e+00 +2.632461067200e+01
 1.25000000e+01 -1.961993614213e+00 +2.456923844133e+01 -5.304212501371e+00 -6.405639312771e+01 -5.304212501371e+00 -6.405639312771e+01 -1.968797939211e+00 +2.441814185386e+01
 1.30000000e+01 -1.808540667409e+00 +2.271198201237e+01 -5.653449026167e+00 -6.591016749188e+01 -5.653449026167e+00 -6.591016749188e+01 -1.815422108597e+00 +2.255465973555e+01
 1.35000000e+01 -1.667790172839e+00 +2.089598687084e+01 -6.012665299003e+00 -6.772068717049e+01 -6.012665299003e+00 -6.772068717049e+01 -1.674751816463e+00 +2.073239419623e+01
 1.40000000e+01 -1.538613937917e+00 +1.911950282328e+01 -6.382236653124e+00 -6.948965907269e+01 -6.382236653124e+00 -6.948965907270e+01 -1.545658926417e+00 +1.894959372314e+01
 1.45000000e+01 -1.420007736797e+00 +1.738081118274e+01 -6.762628050172e+00 -7.121872549121e+01 -6.762628050172e+00 -7.121872549121e+01 -1.427139269949e+00 +1.720453820200e+01
 1.50000000e+01 -1.311075468770e+00 +1.567823452705e+01 -7.154400618968e+00 -7.290945321948e+01 -7.154400618968e+00 -7.290945321949e+01 -1.318296806280e+00 +1.549554869158e+01
 1.55000000e+01 -1.211015669227e+00 +1.401014396112e+01 -7.558220053314e+00 -7.456332389905e+01 -7.558220053314e+00 -7.456332389905e+01 -1.218330134189e+00 +1.382099470058e+01
 1.60000000e+01 -1.119109963136e+00 +1.237496432516e+01 -7.974867274444e+00 -7.618172503372e+01 -7.974867274444e+00 -7.618172503372e+01 -1.126520945915e+00 +1.217929940839e+01
 1.65000000e+01 -1.034713135023e+00 +1.077117772406e+01 -8.405251869547e+00 -7.776594107668e+01 -8.405251869548e+00 -7.776594107668e+01 -1.042224097234e+00 +1.056894320460e+01
 1.70000000e+01 -9.572445535804e-01 +9.197325694550e+00 -8.850428963184e+00 -7.931714393475e+01 -8.850428963184e+00 -7.931714393475e+01 -9.648590319517e-01 +8.988465864455e+00
 1.75000000e+01 -8.861807384902e-01 +7.652010276791e+00 -9.311620378275e+00 -8.083638212750e+01 -9.311620378275e+00 -8.083638212750e+01 -8.939023484767e-01 +7.436467626537e+00
 1.80000000e+01 -8.210488956943e-01 +6.133894213215e+00 -9.790241219083e+00 -8.232456766816e+01 -9.790241219083e+00 -8.232456766816e+01 -8.288813347697e-01 +5.911609396104e+00
 1.85000000e+01 -7.614212778279e-01 +4.641700460377e+00 -1.028793339265e+01 -8.378245946758e+01 -1.028793339265e+01 -8.378245946758e+01 -7.693683284290e-01 +4.412612259942e+00
 1.90000000e+01 -7.069102508322e-01 +3.174211167783e+00 -1.080660812626e+01 -8.521064165463e+01 -1.080660812626e+01 -8.521064165464e+01 -7.149757829616e-01 +2.938256466949e+00
 1.95000000e+01 -6.571639673134e-01 +1.730266250661e+00 -1.134850031171e+01 -8.660949458139e+01 -1.134850031171e+01 -8.660949458139e+01 -6.653519408293e-01 +1.487380001650e+00
 2.00000000e+01 -6.118625630728e-01 +3.087616608926e-01 -1.191623863022e+01 -8.797915531423e+01 -1.191623863022e+01 -8.797915531423e+01 -6.201770297082e-01 +5.887685505769e-02
 2.05000000e+01 -5.707148062018e-01 -1.091352558863e+00 -1.251293707246e+01 -8.931946289475e+01 -1.251293707246e+01 -8.931946289475e+01 -5.791599113637e-01 -1.348304921928e+00
 2.10000000e+01 -5.334551388107e-01 -2.471074368870e+00 -1.314231597455e+01 -9.062988122764e+01 -1.314231597455e+01 -9.062988122765e+01 -5.420351232158e-01 -2.735165313445e+00
 2.15000000e+01 -4.998410603108e-01 -3.831351918308e+00 -1.380886455925e+01 -9.190938847875e+01 -1.380886455925e+01 -9.190938847876e+01 -5.085602615128e-01 -4.102654526255e+00
 2.20000000e+01 -4.696508085434e-01 -5.173085779152e+00 -1.451806309676e+01 -9.315631517721e+01 -1.451806309676e+01 -9.315631517722e+01 -4.785136624087e-01 -5.451675225481e+00
 2.25000000e+01 -4.426813012314e-01 -6.497131192835e+00 -1.527669277630e+01 -9.436810159135e+01 -1.527669277630e+01 -9.436810159136e+01 -4.516923434162e-01 -6.783084783310e+00
 2.30000000e+01 -4.187463054372e-01 -7.804300302242e+00 -1.609327816726e+01 -9.554092399359e+01 -1.609327816726e+01 -9.554092399359e+01 -4.279101729148e-01 -8.097697513107e+00
 2.35000000e+01 -3.976748071111e-01 -9.095364347860e+00 -1.697873646196e+01 -9.666910002323e+01 -1.697873646196e+01 -9.666910002323e+01 -4.069962397956e-01 -9.396286867735e+00
 2.40000000e+01 -3.793095565596e-01 -1.037105581214e+01 -1.794736112152e+01 -9.774410550597e+01 -1.794736112152e+01 -9.774410550598e+01 -3.887933990641e-01 -1.067958758605e+01
 2.45000000e+01 -3.635057688499e-01 -1.163207050030e+01 -1.901836995583e+01 -9.875287209498e+01 -1.901836995583e+01 -9.875287209498e+01 -3.731569724138e-01 -1.194829777582e+01
 2.50000000e+01 -3.501299608970e-01 -1.287906954929e+01 -2.021845605982e+01 -9.967466928176e+01 -2.021845605982e+01 -9.967466928177e+01 -3.599535855106e-01 -1.320308092461e+01
 2.55000000e+01 -3.390589093220e-01 -1.411268135930e+01 -2.158623594703e+01 -1.004749806222e+02 -2.158623594703e+01 -1.004749806222e+02 -3.490601260693e-01 -1.444456783328e+01
 2.60000000e+01 -3.301787151866e-01 -1.533350344463e+01 -2.318058038135e+01 -1.010923559309e+02 -2.318058038135e+01 -1.010923559309e+02 -3.403628088228e-01 -1.567335846851e+01
 2.65000000e+01 -3.233839634463e-01 -1.654210420220e+01 -2.509774179602e+01 -1.014066499683e+02 -2.509774179602e+01 -1.014066499684e+02 -3.337563352201e-01 -1.689002373299e+01
 2.70000000e+01 -3.185769664720e-01 -1.773902459766e+01 -2.751133944104e+01 -1.011485764876e+02 -2.751133944104e+01 -1.011485764877e+02 -3.291431371969e-01 -1.809510715304e+01
 2.75000000e+01 -3.156670822908e-01 -1.892477976996e+01 -3.078456425437e+01 -9.956931593852e+01 -3.078456425437e+01 -9.956931593854e+01 -3.264326956663e-01 -1.928912648455e+01
 2.80000000e+01 -3.145700993297e-01 -2.009986055605e+01 -3.588880907950e+01 -9.357478753028e+01 -3.588880907951e+01 -9.357478753031e+01 -3.255409255076e-01 -2.047257523894e+01
 2.85000000e+01 -3.152076804314e-01 -2.126473493813e+01 -4.587034069110e+01 -5.044247686128e+01 -4.587034069112e+01 -5.044247686130e+01 -3.263896198191e-01 -2.164592413165e+01
 2.90000000e+01 -3.175068597650e-01 -2.241984941615e+01 -3.909121686260e+01 +4.466384869348e+01 -3.909121686260e+01 +4.466384869352e+01 -3.289059470567e-01 -2.280962245574e+01
 2.95000000e+01 -3.213995870062e-01 -2.356563030861e+01 -3.271984719320e+01 +5.594153749502e+01 -3.271984719320e+01 +5.594153749505e+01 -3.330219954279e-01 -2.396409938375e+01
 3.00000000e+01 -3.268223138113e-01 -2.470248498497e+01 -2.904784848020e+01 +5.861964213534e+01 -2.904784848020e+01 +5.861964213536e+01 -3.386743595674e-01 -2.510976520126e+01
 3.05000000e+01 -3.337156181806e-01 -2.583080303306e+01 -2.649587106961e+01 +5.932043006603e+01 -2.649587106961e+01 +5.932043006604e+01 -3.458037650865e-01 -2.624701247528e+01
 3.10000000e+01 -3.420238628077e-01 -2.695095736481e+01 -2.454911008382e+01 +5.926974195835e+01 -2.454911008382e+01 +5.926974195836e+01 -3.543547270949e-01 -2.737621716110e+01
 3.15000000e+01 -3.516948839463e-01 -2.806330526383e+01 -2.298058945183e+01 +5.885731816107e+01 -2.298058945183e+01 +5.885731816108e+01 -3.642752392250e-01 -2.849773965104e+01
 3.20000000e+01 -3.626797077135e-01 -2.916818937806e+01 -2.167067245843e+01 +5.824511820503e+01 -2.167067245843e+01 +5.824511820504e+01 -3.755164900813e-01 -2.961192576828e+01
 3.25000000e+01 -3.749322910841e-01 -3.026593866102e+01 -2.054866620381e+01 +5.751232130187e+01 -2.054866620381e+01 +5.751232130188e+01 -3.880326043670e-01 -3.071910770940e+01
 3.30000000e+01 -3.884092851277e-01 -3.135686926464e+01 -1.956934874611e+01 +5.670212808778e+01 -1.956934874611e+01 +5.670212808778e+01 -4.017804062452e-01 -3.181960493861e+01
 3.35000000e+01 -4.030698183042e-01 -3.244128538691e+01 -1.870205314066e+01 +5.584005115707e+01 -1.870205314066e+01 +5.584005115708e+01 -4.167192027486e-01 -3.291372503688e+01
 3.40000000e+01 -4.188752978618e-01 -3.351948007735e+01 -1.792503079514e+01 +5.494208351113e+01 -1.792503079514e+01 +5.494208351114e+01 -4.328105852866e-01 -3.400176450908e+01
 3.45000000e+01 -4.357892275881e-01 -3.459173600320e+01 -1.722230164568e+01 +5.401872633962e+01 -1.722230164568e+01 +5.401872633962e+01 -4.500182474995e-01 -3.508400955188e+01
 3.50000000e+01 -4.537770403459e-01 -3.565832617909e+01 -1.658178171849e+01 +5.307713342884e+01 -1.658178171849e+01 +5.307713342885e+01 -4.683078178965e-01 -3.616073678536e+01
 3.55000000e+01 -4.728059439835e-01 -3.671951466291e+01 -1.599411322846e+01 +5.212232502711e+01 -1.599411322846e+01 +5.212232502712e+01 -4.876467058666e-01 -3.723221395090e+01
 3.60000000e+01 -4.928447793547e-01 -3.777555722043e+01 -1.545190305024e+01 +5.115791031555e+01 -1.545190305024e+01 +5.115791031556e+01 -5.080039598023e-01 -3.829870057804e+01
 3.65000000e+01 -5.138638893092e-01 -3.882670196116e+01 -1.494920969750e+01 +5.018653578211e+01 -1.494920969750e+01 +5.018653578211e+01 -5.293501361961e-01 -3.936044862265e+01
 3.70000000e+01 -5.358349976269e-01 -3.987318994786e+01 -1.448118747449e+01 +4.921017352408e+01 -1.448118747449e+01 +4.921017352408e+01 -5.516571786877e-01 -4.041770307895e+01
 3.75000000e+01 -5.587310969699e-01 -4.091525578191e+01 -1.404383336280e+01 +4.823031234490e+01 -1.404383336280e+01 +4.823031234490e+01 -5.748983061371e-01 -4.147070256761e+01
 3.80000000e+01 -5.825263450193e-01 -4.195312816680e+01 -1.363380300000e+01 +4.724808779982e+01 -1.363380300000e+01 +4.724808779982e+01 -5.990479088911e-01 -4.251967990201e+01
 3.85000000e+01 -6.071959680382e-01 -4.298703045197e+01 -1.324827429426e+01 +4.626437275666e+01 -1.324827429426e+01 +4.626437275666e+01 -6.240814524895e-01 -4.356486263508e+01
 3.90000000e+01 -6.327161711820e-01 -4.401718115880e+01 -1.288484460923e+01 +4.527984175268e+01 -1.288484460923e+01 +4.527984175268e+01 -6.499753881311e-01 -4.460647358845e+01
 3.95000000e+01 -6.590640549351e-01 -4.504379449111e+01 -1.254145207167e+01 +4.429501756002e+01 -1.254145207167e+01 +4.429501756002e+01 -6.767070692833e-01 -4.564473136617e+01
 4.00000000e+01 -6.862175371167e-01 -4.606708083175e+01 -1.221631451691e+01 +4.331030542279e+01 -1.221631451691e+01 +4.331030542279e+01 -7.042546738774e-01 -4.667985085483e+01
 4.05000000e+01 -7.141552799469e-01 -4.708724722753e+01 -1.190788153417e+01 +4.232601859416e+01 -1.190788153417e+01 +4.232601859416e+01 -7.325971315848e-01 -4.771204371198e+01
 4.10000000e+01 -7.428566217139e-01 -4.810449786407e+01 -1.161479637985e+01 +4.134239763184e+01 -1.161479637985e+01 +4.134239763184e+01 -7.617140557152e-01 -4.874151884474e+01
 4.15000000e+01 -7.723015126254e-01 -4.911903453263e+01 -1.133586542051e+01 +4.035962514860e+01 -1.133586542051e+01 +4.035962514861e+01 -7.915856793232e-01 -4.976848288041e+01
 4.20000000e+01 -8.024704544651e-01 -5.013105709060e+01 -1.107003338929e+01 +3.937783720801e+01 -1.107003338929e+01 +3.937783720801e+01 -8.221927951452e-01 -5.079314063095e+01
 4.25000000e+01 -8.333444437127e-01 -5.114076391752e+01 -1.081636317933e+01 +3.839713221317e+01 -1.081636317933e+01 +3.839713221318e+01 -8.535166990252e-01 -5.181569555300e+01
 4.30000000e+01 -8.649049178142e-01 -5.214835236846e+01 -1.057401921339e+01 +3.741757790094e+01 -1.057401921339e+01 +3.741757790094e+01 -8.855391365226e-01 -5.283635020543e+01
 4.35000000e+01 -8.971337043243e-01 -5.315401922653e+01 -1.034225365809e+01 +3.643921688927e+01 -1.034225365809e+01 +3.643921688927e+01 -9.182422524178e-01 -5.385530670599e+01
 4.40000000e+01 -9.300129726633e-01 -5.415796115637e+01 -1.012039492057e+01 +3.546207110951e+01 -1.012039492057e+01 +3.546207110952e+01 -9.516085428671e-01 -5.487276718907e+01
 4.45000000e+01 -9.635251882630e-01 -5.516037516050e+01 -9.907837990744e+00 +3.448614537174e+01 -9.907837990744e+00 +3.448614537174e+01 -9.856208099752e-01 -5.588893426633e+01
 4.50000000e+01 -9.976530688934e-01 -5.616145904044e+01 -9.704036287165e+00 +3.351143025071e+01 -9.704036287165e+00 +3.351143025071e+01 -1.020262118582e+00 -5.690401149209e+01
 4.55000000e+01 -1.032379542988e+00 -5.716141186454e+01 -9.508494736400e+00 +3.253790443589e+01 -9.508494736400e+00 +3.253790443589e+01 -1.055515755079e+00 -5.791820383540e+01
 4.60000000e+01 -1.067687709807e+00 -5.816043444451e+01 -9.320763871012e+00 +3.156553665597e+01 -9.320763871012e+00 +3.156553665597e+01 -1.091365188099e+00 -5.893171816080e+01
 4.65000000e+01 -1.103560801294e+00 -5.915872982284e+01 -9.140434773881e+00 +3.059428726364e+01 -9.140434773881e+00 +3.059428726364e+01 -1.127794030917e+00 -5.994476371984e+01
 4.70000000e+01 -1.139982145503e+00 -6.015650377318e+01 -8.967134729914e+00 +2.962410954822e+01 -8.967134729913e+00 +2.962410954822e+01 -1.164786005470e+00 -6.095755265549e+01
 4.75000000e+01 -1.176935131504e+00 -6.115396531606e+01 -8.800523472321e+00 +2.865495082926e+01 -8.800523472321e+00 +2.865495082927e+01 -1.202324907858e+00 -6.197030052177e+01
 4.80000000e+01 -1.214403175663e+00 -6.215132725226e+01 -8.640289931392e+00 +2.768675337385e+01 -8.640289931392e+00 +2.768675337385e+01 -1.240394575258e+00 -6.298322682081e+01
 4.85000000e+01 -1.252369689260e+00 -6.314880671653e+01 -8.486149410146e+00 +2.671945517185e+01 -8.486149410146e+00 +2.671945517185e+01 -1.278978854180e+00 -6.399655556010e+01
 4.90000000e+01 -1.290818047379e+00 -6.414662575420e+01 -8.337841124520e+00 +2.575299059708e+01 -8.337841124520e+00 +2.575299059709e+01 -1.318061570018e+00 -6.501051583245e+01
 4.95000000e+01 -1.329731559064e+00 -6.514501192365e+01 -8.195126056429e+00 +2.478729097749e+01 -8.195126056429e+00 +2.478729097749e+01 -1.357626497863e+00 -6.602534242146e+01
 5.00000000e+01 -1.369093438743e+00 -6.614419892769e+01 -8.057785076709e+00 +2.382228509346e+01 -8.057785076709e+00 +2.382228509346e+01 -1.397657334584e+00 -6.704127643578e+01
