#  GHZ S DB R 50.0
 1.00000000e-02 -3.651701961740e+01 +3.280940373170e+00 -1.304985781984e-01 -7.369946037211e-02 -1.304985781895e-01 -7.369946042784e-02 -3.651717160307e+01 +3.281509729134e+00
 2.00000000e-02 -3.647805486480e+01 +6.385223203058e+00 -1.305768081820e-01 -1.449790691050e-01 -1.305768081808e-01 -1.449790691117e-01 -3.647822282980e+01 +6.384760100556e+00
 5.00000000e-01 -2.675086552116e+01 +7.108518508752e+01 -1.725478038848e-01 -3.455509733477e+00 -1.725478038848e-01 -3.455509733477e+00 -2.675327962001e+01 +7.105600404984e+01
 1.00000000e+00 -2.071574671920e+01 +7.696965973144e+01 -2.389615575573e-01 -6.624269744438e+00 -2.389615575573e-01 -6.624269744438e+00 -2.072035256905e+01 +7.693924494335e+01
 1.50000000e+00 -1.716097495052e+01 +7.626416028307e+01 -3.136883395329e-01 -9.696977008805e+00 -3.136883395330e-01 -9.696977008805e+00 -1.716641998408e+01 +7.623292841420e+01
 2.00000000e+00 -1.468934406006e+01 +7.420692281127e+01 -4.011561104899e-01 -1.272228061089e+01 -4.011561104900e-01 -1.272228061089e+01 -1.469508191631e+01 +7.417359138696e+01
 2.50000000e+00 -1.281240144035e+01 +7.172456062623e+01 -5.035606441180e-01 -1.570749531931e+01 -5.035606441181e-01 -1.570749531931e+01 -1.281826019539e+01 +7.168770393716e+01
 3.00000000e+00 -1.131173651315e+01 +6.908300301632e+01 -6.216985587241e-01 -1.865116155406e+01 -6.216985587242e-01 -1.865116155406e+01 -1.131767230860e+01 +6.904189688130e+01
 3.50000000e+00 -1.007163818666e+01 +6.638409771093e+01 -7.556712319711e-01 -2.154975583381e+01 -7.556712319711e-01 -2.154975583381e+01 -1.007762789814e+01 +6.633835609796e+01
 4.00000000e+00 -9.023416753867e+00 +6.367517089821e+01 -9.052202607624e-01 -2.439954337994e+01 -9.052202607624e-01 -2.439954337994e+01 -9.029446301770e+00 +6.362451713792e+01
 4.50000000e+00 -8.122851130672e+00 +6.098151742200e+01 -1.069892914080e+00 -2.719716275085e+01 -1.069892914081e+00 -2.719716275085e+01 -8.128915670339e+00 +6.092573860497e+01
 5.00000000e+00 -7.339686572071e+00 +5.831808430363e+01 -1.249132168738e+00 -2.993982711092e+01 -1.249132168738e+00 -2.993982711092e+01 -7.345787385266e+00 +5.825702560488e+01
 5.50000000e+00 -6.652220826944e+00 +5.569430094915e+01 -1.442331858715e+00 -3.262538260538e+01 -1.442331858715e+00 -3.262538260538e+01 -6.658361689560e+00 +5.562785491396e+01
 6.00000000e+00 -6.044288972274e+00 +5.311631758273e+01 -1.648873452748e+00 -3.525230082407e+01 -1.648873452748e+00 -3.525230082407e+01 -6.050473924664e+00 +5.304440903775e+01
 6.50000000e+00 -5.503478048115e+00 +5.058815495785e+01 -1.868151723144e+00 -3.781963795744e+01 -1.868151723144e+00 -3.781963795744e+01 -5.509710540986e+00 +5.051072765304e+01
 7.00000000e+00 -5.020015556684e+00 +4.811235420772e+01 -2.099593040907e+00 -4.032697762502e+01 -2.099593040907e+00 -4.032697762502e+01 -5.026298374541e+00 +4.802936160610e+01
 7.50000000e+00 -4.586047826584e+00 +4.569037775726e+01 -2.342668514799e+00 -4.277436691940e+01 -2.342668514799e+00 -4.277436691940e+01 -4.592383301923e+00 +4.560177764900e+01
 8.00000000e+00 -4.195154427484e+00 +4.332287633199e+01 -2.596903417771e+00 -4.516225112893e+01 -2.596903417771e+00 -4.516225112893e+01 -4.201544688120e+00 +4.322862807351e+01
 8.50000000e+00 -3.842011138990e+00 +4.100987843009e+01 -2.861883897623e+00 -4.749141029456e+01 -2.861883897624e+00 -4.749141029456e+01 -3.848458293030e+00 +4.090994169349e+01
 9.00000000e+00 -3.522149574432e+00 +3.875093161955e+01 -3.137261695845e+00 -4.976289943176e+01 -3.137261695846e+00 -4.976289943176e+01 -3.528655819117e+00 +3.864526589080e+01
 9.50000000e+00 -3.231781545198e+00 +3.654521184809e+01 -3.422757427247e+00 -5.197799345754e+01 -3.422757427247e+00 -5.197799345754e+01 -3.238349216175e+00 +3.643377623680e+01
 1.00000000e+01 -2.967667917585e+00 +3.439161018681e+01 -3.718162862444e+00 -5.413813735655e+01 -3.718162862444e+00 -5.413813735655e+01 -2.974299500527e+00 +3.427436333037e+01
 1.05000000e+01 -2.727018760413e+00 +3.228880279553e+01 -4.023342581170e+00 -5.624490177200e+01 -4.023342581170e+00 -5.624490177200e+01 -2.733716882890e+00 +3.216570276718e+01
 1.10000000e+01 -2.507415965943e+00 +3.023530787062e+01 -4.338235312561e+00 -5.829994395546e+01 -4.338235312561e+00 -5.829994395546e+01 -2.514183381523e+00 +3.010631206541e+01
 1.15000000e+01 -2.306752326488e+00 +2.822953216617e+01 -4.662855241367e+00 -6.030497382631e+01 -4.662855241367e+00 -6.030497382631e+01 -2.313591897985e+00 +2.809459716590e+01
 1.20000000e+01 -2.123182878549e+00 +2.626980897682e+01 -4.997293532738e+00 -6.226172475973e+01 -4.997293532738e+00 -6.226172475973e+01 -2.130097563807e+00 +2.612889040434e+01
 1.25000000e+01 -1.955085546191e+00 +2.435442903189e+01 -5.341720311649e+00 -6.417192863327e+01 -5.341720311649e+00 -6.417192863327e+01 -1.962078387613e+00 +2.420748140528e+01
 1.30000000e+01 -1.801028943822e+00 +2.248166546008e+01 -5.696387326055e+00 -6.603729460530e+01 -5.696387326055e+00 -6.603729460530e+01 -1.808103061666e+00 +2.232864205484e+01
 1.35000000e+01 -1.659745770682e+00 +2.064979378065e+01 -6.061631526530e+00 -6.785949106689e+01 -6.061631526530e+00 -6.785949106689e+01 -1.666904359582e+00 +2.049064650460e+01
 1.40000000e+01 -1.530110630714e+00 +1.885710772449e+01 -6.437879810840e+00 -6.964013019158e+01 -6.437879810840e+00 -6.964013019158e+01 -1.537356958712e+00 +1.869178700757e+01
 1.45000000e+01 -1.411121397296e+00 +1.710193156778e+01 -6.825655211941e+00 -7.138075449830e+01 -6.825655211941e+00 -7.138075449830e+01 -1.418458806652e+00 +1.693038626704e+01
 1.50000000e+01 -1.301883448721e+00 +1.538262956154e+01 -7.225584855322e+00 -7.308282483109e+01 -7.225584855322e+00 -7.308282483109e+01 -1.309315357908e+00 +1.520480688006e+01
 1.55000000e+01 -1.201596251562e+00 +1.369761295504e+01 -7.638410080971e+00 -7.474770913822e+01 -7.638410080971e+00 -7.474770913822e+01 -1.209126157934e+00 +1.351345837330e+01
 1.60000000e+01 -1.109541881245e+00 +1.204534503798e+01 -8.064999222914e+00 -7.637667139174e+01 -8.064999222914e+00 -7.637667139174e+01 -1.117173364033e+00 +1.185480225548e+01
 1.65000000e+01 -1.025075153671e+00 +1.042434456238e+01 -8.506363674559e+00 -7.797085991557e+01 -8.506363674559e+00 -7.797085991556e+01 -1.032811877052e+00 +1.022735544763e+01
 1.70000000e+01 -9.476151059956e-01 +8.833187849582e+00 -8.963678054571e+00 -7.953129426978e+01 -8.963678054571e+00 -7.953129426978e+01 -9.554608220705e-01 +8.629692396397e+00
 1.75000000e+01 -8.766376143394e-01 +7.270509839236e+00 -9.438305545629e+00 -8.105884964888e+01 -9.438305545630e+00 -8.105884964888e+01 -8.845961659288e-01 +7.060446127773e+00
 1.80000000e+01 -8.116689748635e-01 +5.735004295688e+00 -9.931829836954e+00 -8.255423745871e+01 -9.931829836954e+00 -8.255423745871e+01 -8.197442980823e-01 +5.518308456670e+00
 1.85000000e+01 -7.522803052114e-01 +4.225423351048e+00 -1.044609560570e+01 -8.401798028981e+01 -1.044609560570e+01 -8.401798028981e+01 -7.604764318110e-01 +4.002029531992e+00
 1.90000000e+01 -6.980826476088e-01 +2.740576533571e+00 -1.098326019100e+01 -8.545037882159e+01 -1.098326019100e+01 -8.545037882159e+01 -7.064037071068e-01 +2.510416866023e+00
 1.95000000e+01 -6.487226744891e-01 +1.279329403901e+00 -1.154586015463e+01 -8.685146713899e+01 -1.154586015463e+01 -8.685146713899e+01 -6.571728961168e-01 +1.042333970877e+00
 2.00000000e+01 -6.038789133687e-01 -1.593981003927e-01 -1.213689795466e+01 -8.822095129804e+01 -1.213689795466e+01 -8.822095129804e+01 -6.124626278774e-01 -4.033012973700e-01
 2.05000000e+01 -5.632584206659e-01 -1.576633530146e+00 -1.275995626086e+01 -8.955812335787e+01 -1.275995626086e+01 -8.955812335787e+01 -5.719800620344e-01 -1.827518604883e+00
 2.10000000e+01 -5.265938448355e-01 -2.973353933492e+00 -1.341935097637e+01 -9.086173882951e+01 -1.341935097637e+01 -9.086173882951e+01 -5.354579519232e-01 -3.231297150180e+00
 2.15000000e+01 -4.936408280324e-01 -4.350487955037e+00 -1.412033959683e+01 -9.212983835276e+01 -1.412033959683e+01 -9.212983835276e+01 -5.026520462192e-01 -4.615567764776e+00
 2.20000000e+01 -4.641757028940e-01 -5.708917982783e+00 -1.486941054638e+01 -9.335948208940e+01 -1.486941054638e+01 -9.335948208940e+01 -4.733387857453e-01 -5.981215061739e+00
 2.25000000e+01 -4.379934471998e-01 -7.049482309214e+00 -1.567469417504e+01 -9.454634328028e+01 -1.567469417504e+01 -9.454634328027e+01 -4.473132581920e-01 -7.329079598518e+00
 2.30000000e+01 -4.149058643686e-01 -8.372977280268e+00 -1.654656214491e+01 -9.568406633947e+01 -1.654656214491e+01 -9.568406633947e+01 -4.243873787039e-01 -8.659960027719e+00
 2.35000000e+01 -3.947399621415e-01 -9.680159411987e+00 -1.749852891941e+01 -9.676321457023e+01 -1.749852891941e+01 -9.676321457023e+01 -4.043882686801e-01 -9.974615215578e+00
 2.40000000e+01 -3.773365055300e-01 -1.097174745952e+01 -1.854865803680e+01 -9.776946660362e+01 -1.854865803680e+01 -9.776946660362e+01 -3.871568088589e-01 -1.127376631278e+01
 2.45000000e+01 -3.625487232763e-01 -1.224842442717e+01 -1.972185421561e+01 -9.868035380648e+01 -1.972185421561e+01 -9.868035380648e+01 -3.725463459351e-01 -1.255809876634e+01
 2.50000000e+01 -3.502411497897e-01 -1.351083951144e+01 -2.105380540326e+01 -9.945895156768e+01 -2.105380540326e+01 -9.945895156768e+01 -3.604215346662e-01 -1.382826426439e+01
 2.55000000e+01 -3.402885868394e-01 -1.475960997164e+01 -2.259823407988e+01 -1.000406057897e+02 -2.259823407988e+01 -1.000406057897e+02 -3.506572997471e-01 -1.508488260852e+01
 2.60000000e+01 -3.325751712858e-01 -1.599532292457e+01 -2.444144404681e+01 -1.003017379832e+02 -2.444144404681e+01 -1.003017379832e+02 -3.431379037313e-01 -1.632854351020e+01
 2.65000000e+01 -3.269935368443e-01 -1.721853706181e+01 -2.673509404684e+01 -9.997448894914e+01 -2.673509404684e+01 -9.997448894914e+01 -3.377561089906e-01 -1.755980830966e+01
 2.70000000e+01 -3.234440593657e-01 -1.842978428891e+01 -2.978309020798e+01 -9.835435521778e+01 -2.978309020798e+01 -9.835435521777e+01 -3.344124231956e-01 -1.877921161677e+01
 2.75000000e+01 -3.218341763972e-01 -1.962957128734e+01 -3.433319361788e+01 -9.284560082247e+01 -3.433319361788e+01 -9.284560082245e+01 -3.330144190788e-01 -1.998726287452e+01
 2.80000000e+01 -3.220777729043e-01 -2.081838100051e+01 -4.259111538920e+01 -6.384738954950e+01 -4.259111538920e+01 -6.384738954946e+01 -3.334761203588e-01 -2.118444784661e+01
 2.85000000e+01 -3.240946259994e-01 -2.199667404582e+01 -4.032050070052e+01 +3.456111107274e+01 -4.032050070052e+01 +3.456111107274e+01 -3.357174466715e-01 -2.237123003101e+01
 2.90000000e+01 -3.278099023675e-01 -2.316489005520e+01 -3.332102929119e+01 +5.287547905938e+01 -3.332102929119e+01 +5.287547905937e+01 -3.396637111958e-01 -2.354805200205e+01
 2.95000000e+01 -3.331537028112e-01 -2.432344894689e+01 -2.936730408060e+01 +5.704518607423e+01 -2.936730408060e+01 +5.704518607423e+01 -3.452451653975e-01 -2.471533668367e+01
 3.00000000e+01 -3.400606489835e-01 -2.547275213140e+01 -2.667240572730e+01 +5.832635741686e+01 -2.667240572730e+01 +5.832635741685e+01 -3.523965859560e-01 -2.587348855688e+01
 3.05000000e+01 -3.484695079321e-01 -2.661318365474e+01 -2.464072435830e+01 +5.856943865283e+01 -2.464072435830e+01 +5.856943865282e+01 -3.610568995020e-01 -2.702289480451e+01
 3.10000000e+01 -3.583228505786e-01 -2.774511128209e+01 -2.301646052779e+01 +5.832787730501e+01 -2.301646052779e+01 +5.832787730501e+01 -3.711688412835e-01 -2.816392639635e+01
 3.15000000e+01 -3.695667406820e-01 -2.886888752506e+01 -2.166745370704e+01 +5.782357984521e+01 -2.166745370704e+01 +5.782357984521e+01 -3.826786443145e-01 -2.929693911800e+01
 3.20000000e+01 -3.821504512196e-01 -2.998485061581e+01 -2.051673894485e+01 +5.716251823284e+01 -2.051673894485e+01 +5.716251823284e+01 -3.955357559352e-01 -3.042227454643e+01
 3.25000000e+01 -3.960262054508e-01 -3.109332543096e+01 -1.951561615795e+01 +5.640156921362e+01 -1.951561615795e+01 +5.640156921362e+01 -4.096925790529e-01 -3.154026097559e+01
 3.30000000e+01 -4.111489402254e-01 -3.219462436864e+01 -1.863133718620e+01 +5.557392241638e+01 -1.863133718620e+01 +5.557392241638e+01 -4.251042356225e-01 -3.265121429496e+01
 3.35000000e+01 -4.274760893590e-01 -3.328904818130e+01 -1.784083265318e+01 +5.470019940263e+01 -1.784083265318e+01 +5.470019940263e+01 -4.417283501899e-01 -3.375543882409e+01
 3.40000000e+01 -4.449673851244e-01 -3.437688676760e+01 -1.712724410430e+01 +5.379385159440e+01 -1.712724410430e+01 +5.379385159440e+01 -4.595248515491e-01 -3.485322810610e+01
 3.45000000e+01 -4.635846761177e-01 -3.545841992574e+01 -1.647788064422e+01 +5.286399885977e+01 -1.647788064422e+01 +5.286399885976e+01 -4.784557907693e-01 -3.594486566282e+01
 3.50000000e+01 -4.832917599334e-01 -3.653391807129e+01 -1.588295159844e+01 +5.191702026239e+01 -1.588295159844e+01 +5.191702026239e+01 -4.984851740281e-01 -3.703062571434e+01
 3.55000000e+01 -5.040542292439e-01 -3.760364292185e+01 -1.533474667038e+01 +5.095749299696e+01 -1.533474667038e+01 +5.095749299696e+01 -5.195788088469e-01 -3.811077386560e+01
 3.60000000e+01 -5.258393300247e-01 -3.866784815132e+01 -1.482708656533e+01 +4.998877103670e+01 -1.482708656533e+01 +4.998877103670e+01 -5.417041624680e-01 -3.918556776248e+01
 3.65000000e+01 -5.486158307875e-01 -3.972678001583e+01 -1.435494367427e+01 +4.901335499007e+01 -1.435494367427e+01 +4.901335499007e+01 -5.648302312386e-01 -4.025525771974e+01
 3.70000000e+01 -5.723539018018e-01 -4.078067795398e+01 -1.391417335032e+01 +4.803313600302e+01 -1.391417335032e+01 +4.803313600302e+01 -5.889274199798e-01 -4.132008732334e+01
 3.75000000e+01 -5.970250033826e-01 -4.182977516347e+01 -1.350131922877e+01 +4.704956100768e+01 -1.350131922877e+01 +4.704956100767e+01 -6.139674304201e-01 -4.238029400907e+01
 3.80000000e+01 -6.226017824126e-01 -4.287429915619e+01 -1.311346939479e+01 +4.606374735714e+01 -1.311346939479e+01 +4.606374735714e+01 -6.399231578629e-01 -4.343610961992e+01
 3.85000000e+01 -6.490579763497e-01 -4.391447229403e+01 -1.274814825824e+01 +4.507656401956e+01 -1.274814825823e+01 +4.507656401956e+01 -6.667685953360e-01 -4.448776094408e+01
 3.90000000e+01 -6.763683240386e-01 -4.495051230729e+01 -1.240323400529e+01 +4.408869015657e+01 -1.240323400529e+01 +4.408869015657e+01 -6.944787445455e-01 -4.553547023569e+01
 3.95000000e+01 -7.045084827149e-01 -4.598263279765e+01 -1.207689469780e+01 +4.310065808547e+01 -1.207689469780e+01 +4.310065808547e+01 -7.230295330209e-01 -4.657945572022e+01
 4.00000000e+01 -7.334549506439e-01 -4.701104372764e+01 -1.176753818643e+01 +4.211288525579e+01 -1.176753818643e+01 +4.211288525579e+01 -7.523977368928e-01 -4.761993208642e+01
 4.05000000e+01 -7.631849948910e-01 -4.803595189848e+01 -1.147377240506e+01 +4.112569836667e+01 -1.147377240506e+01 +4.112569836667e+01 -7.825609088039e-01 -4.865711096672e+01
 4.10000000e+01 -7.936765837674e-01 -4.905756141799e+01 -1.119437356938e+01 +4.013935177595e+01 -1.119437356938e+01 +4.013935177595e+01 -8.134973104929e-01 -4.969120140777e+01
 4.15000000e+01 -8.249083235376e-01 -5.007607416058e+01 -1.092826046596e+01 +3.915404170528e+01 -1.092826046596e+01 +3.915404170528e+01 -8.451858496408e-01 -5.072241033315e+01
 4.20000000e+01 -8.568593990138e-01 -5.109169022082e+01 -1.067447348567e+01 +3.816991731020e+01 -1.067447348567e+01 +3.816991731020e+01 -8.776060206032e-01 -5.175094299978e+01
 4.25000000e+01 -8.895095176973e-01 -5.210460836264e+01 -1.043215739041e+01 +3.718708938510e+01 -1.043215739041e+01 +3.718708938510e+01 -9.107378486896e-01 -5.277700344991e+01
 4.30000000e+01 -9.228388571611e-01 -5.311502646567e+01 -1.020054704480e+01 +3.620563726519e+01 -1.020054704480e+01 +3.620563726519e+01 -9.445618376838e-01 -5.380079496052e+01
 4.35000000e+01 -9.568280153950e-01 -5.412314197069e+01 -9.978955523143e+00 +3.522561434055e+01 -9.978955523143e+00 +3.522561434055e+01 -9.790589203259e-01 -5.482252049172e+01
 4.40000000e+01 -9.914579638650e-01 -5.512915232592e+01 -9.766764134477e+00 +3.424705249247e+01 -9.766764134477e+00 +3.424705249247e+01 -1.014210411509e+00 -5.584238313618e+01
 4.45000000e+01 -1.026710003061e+00 -5.613325543585e+01 -9.563414008148e+00 +3.326996568604e+01 -9.563414008148e+00 +3.326996568604e+01 -1.049997963963e+00 -5.686058657114e+01
 4.50000000e+01 -1.062565720336e+00 -5.713565011477e+01 -9.368398958038e+00 +3.229435289752e+01 -9.368398958038e+00 +3.229435289752e+01 -1.086403526227e+00 -5.787733551518e+01
 4.55000000e+01 -1.099006949855e+00 -5.813653654657e+01 -9.181259401300e+00 +3.132020051363e+01 -9.181259401300e+00 +3.132020051363e+01 -1.123409302738e+00 -5.889283619129e+01
 4.60000000e+01 -1.136015734501e+00 -5.913611675300e+01 -9.001577152263e+00 +3.034748430932e+01 -9.001577152263e+00 +3.034748430932e+01 -1.160997715864e+00 -5.990729679861e+01
 4.65000000e+01 -1.173574289611e+00 -6.013459507251e+01 -8.828970946937e+00 +2.937617108737e+01 -8.828970946937e+00 +2.937617108737e+01 -1.199151369770e+00 -6.092092799453e+01
 4.70000000e+01 -1.211664968405e+00 -6.113217865150e+01 -8.663092580902e+00 +2.840622004567e+01 -8.663092580902e+00 +2.840622004566e+01 -1.237853015985e+00 -6.193394338956e+01
 4.75000000e+01 -1.250270229052e+00 -6.212907795062e+01 -8.503623564935e+00 +2.743758392448e+01 -8.503623564935e+00 +2.743758392448e+01 -1.277085520580e+00 -6.294656005702e+01
 4.80000000e+01 -1.289372603265e+00 -6.312550726816e+01 -8.350272219948e+00 +2.647020997585e+01 -8.350272219948e+00 +2.647020997585e+01 -1.316831832894e+00 -6.395899906005e+01
 4.85000000e+01 -1.328954666399e+00 -6.412168528325e+01 -8.202771146577e+00 +2.550404078917e+01 -8.202771146577e+00 +2.550404078917e+01 -1.357074955748e+00 -6.497148599832e+01
 4.90000000e+01 -1.368999009013e+00 -6.511783562134e+01 -8.060875015872e+00 +2.453901500085e+01 -8.060875015872e+00 +2.453901500084e+01 -1.397797917112e+00 -6.598425157709e+01
 4.95000000e+01 -1.409488209898e+00 -6.611418744499e+01 -7.924358636546e+00 +2.357506791109e+01 -7.924358636546e+00 +2.357506791109e+01 -1.438983743243e+00 -6.699753220154e+01
 5.00000000e+01 -1.450404810581e+00 -6.711097607273e+01 -7.793015261605e+00 +2.261213202735e+01 -7.793015261605e+00 +2.261213202735e+01 -1.480615433285e+00 -6.801157059920e+01
