#  GHZ S DB R 50.0
 1.00000000e-02 -3.653099809052e+01 +3.266206949511e+00 -1.302919274466e-01 -7.376428152194e-02 -1.302919274471e-01 -7.376428151944e-02 -3.653093837096e+01 +3.263752705032e+00
 2.00000000e-02 -3.649188966751e+01 +6.359751942192e+00 -1.303802561259e-01 -1.452070072241e-01 -1.303802561260e-01 -1.452070072240e-01 -3.649182822276e+01 +6.357861129714e+00
 5.00000000e-01 -2.679810644121e+01 +7.107334444729e+01 -1.730615929328e-01 -3.452891190032e+00 -1.730615929328e-01 -3.452891190032e+00 -2.680034161634e+01 +7.104370217841e+01
 1.00000000e+00 -2.075388868149e+01 +7.694708195135e+01 -2.402683910361e-01 -6.615663101376e+00 -2.402683910361e-01 -6.615663101376e+00 -2.075866393163e+01 +7.691593980544e+01
 1.50000000e+00 -1.719847641799e+01 +7.619964201442e+01 -3.159798561064e-01 -9.680524088061e+00 -3.159798561064e-01 -9.680524088061e+00 -1.720403569011e+01 +7.616884062531e+01
 2.00000000e+00 -1.472855604322e+01 +7.411209890540e+01 -4.045156952491e-01 -1.269617968745e+01 -4.045156952491e-01 -1.269617968745e+01 -1.473437563213e+01 +7.407935615220e+01
 2.50000000e+00 -1.285381300183e+01 +7.160943213006e+01 -5.079545086254e-01 -1.567017320947e+01 -5.079545086254e-01 -1.567017320947e+01 -1.285974798775e+01 +7.157333790027e+01
 3.00000000e+00 -1.135516479236e+01 +6.895558900451e+01 -6.269800212627e-01 -1.860169299693e+01 -6.269800212627e-01 -1.860169299693e+01 -1.136117530121e+01 +6.891542094431e+01
 3.50000000e+00 -1.011651071894e+01 +6.625039968030e+01 -7.616335281370e-01 -2.148816454202e+01 -7.616335281370e-01 -2.148816454202e+01 -1.012257683051e+01 +6.620580039515e+01
 4.00000000e+00 -9.068952086200e+00 +6.353906666583e+01 -9.116571128318e-01 -2.432686389005e+01 -9.116571128318e-01 -2.432686389005e+01 -9.075055944014e+00 +6.348979057823e+01
 4.50000000e+00 -8.168192859520e+00 +6.084491747219e+01 -1.076648006533e+00 -2.711534617066e+01 -1.076648006533e+00 -2.711534617066e+01 -8.174324057057e+00 +6.079074785912e+01
 5.00000000e+00 -7.383992585561e+00 +5.818124302833e+01 -1.256133176401e+00 -2.985157438068e+01 -1.256133176401e+00 -2.985157438068e+01 -7.390149761469e+00 +5.812200342313e+01
 5.50000000e+00 -6.694716824896e+00 +5.555616673634e+01 -1.449611130085e+00 -3.253396168236e+01 -1.449611130085e+00 -3.253396168236e+01 -6.700903740491e+00 +5.549173190329e+01
 6.00000000e+00 -6.084297002609e+00 +5.297485933809e+01 -1.656579235792e+00 -3.516137484126e+01 -1.656579235792e+00 -3.516137484126e+01 -6.090518601687e+00 +5.290514603988e+01
 6.50000000e+00 -5.540428931047e+00 +5.044064158502e+01 -1.876553169400e+00 -3.773311341560e+01 -1.876553169400e+00 -3.773311341560e+01 -5.546689472718e+00 +5.036559248192e+01
 7.00000000e+00 -5.053451418442e+00 +4.795558390036e+01 -2.109081199356e+00 -4.024887425033e+01 -2.109081199356e+00 -4.024887425033e+01 -5.059754148509e+00 +4.787515466609e+01
 7.50000000e+00 -4.615618743881e+00 +4.552086204033e+01 -2.353754805207e+00 -4.270870835810e+01 -2.353754805207e+00 -4.270870835810e+01 -4.621966191686e+00 +4.543501382293e+01
 8.00000000e+00 -4.220611662866e+00 +4.313698580023e+01 -2.610216637481e+00 -4.511297490310e+01 -2.610216637481e+00 -4.511297490310e+01 -4.227006028667e+00 +4.304568168042e+01
 8.50000000e+00 -3.863198500444e+00 +4.080395677142e+01 -2.878166552450e+00 -4.746229521769e+01 -2.878166552450e+00 -4.746229521769e+01 -3.869641939167e+00 +4.070716044908e+01
 9.00000000e+00 -3.538993866357e+00 +3.852138350696e+01 -3.157366278439e+00 -4.975750860212e+01 -3.157366278439e+00 -4.975750860212e+01 -3.545488643229e+00 +3.841905898321e+01
 9.50000000e+00 -3.244282738997e+00 +3.628856929414e+01 -3.447643152193e+00 -5.199963090344e+01 -3.447643152193e+00 -5.199963090344e+01 -3.250831289594e+00 +3.618068088089e+01
 1.00000000e+01 -2.975889460291e+00 +3.410458115614e+01 -3.748893284172e+00 -5.418981638432e+01 -3.748893284172e+00 -5.418981638432e+01 -2.982494394169e+00 +3.399109351657e+01
 1.05000000e+01 -2.731078301621e+00 +3.196830526074e+01 -4.061084458277e+00 -5.632932307508e+01 -4.061084458277e+00 -5.632932307508e+01 -2.737742379320e+00 +3.184918338161e+01
 1.10000000e+01 -2.507476686003e+00 +2.987849202406e+01 -4.384259037264e+00 -5.841948158957e+01 -4.384259037264e+00 -5.841948158957e+01 -2.514202787998e+00 +2.975370111012e+01
 1.15000000e+01 -2.303014976862e+00 +2.783379311380e+01 -4.718537125732e+00 -6.046166724011e+01 -4.718537125732e+00 -6.046166724011e+01 -2.309806074312e+00 +2.770329842658e+01
 1.20000000e+01 -2.115878590469e+00 +2.583279190876e+01 -5.064120235858e+00 -6.245727518348e+01 -5.064120235858e+00 -6.245727518348e+01 -2.122737722049e+00 +2.569655857725e+01
 1.25000000e+01 -1.944469422395e+00 +2.387402856744e+01 -5.421295706302e+00 -6.440769825254e+01 -5.421295706302e+00 -6.440769825254e+01 -1.951399678240e+00 +2.373202139360e+01
 1.30000000e+01 -1.787374417643e+00 +2.195602059625e+01 -5.790442142289e+00 -6.631430706726e+01 -5.790442142289e+00 -6.631430706726e+01 -1.794378929827e+00 +2.180820387114e+01
 1.35000000e+01 -1.643339695363e+00 +2.007727962993e+01 -6.172036176561e+00 -6.817843196327e+01 -6.172036176561e+00 -6.817843196327e+01 -1.650421633662e+00 +1.992361696950e+01
 1.40000000e+01 -1.511249047851e+00 +1.823632501011e+01 -6.566660899554e+00 -7.000134622038e+01 -6.566660899554e+00 -7.000134622038e+01 -1.518411619401e+00 +1.807677921479e+01
 1.45000000e+01 -1.390105925305e+00 +1.643169465397e+01 -6.975016377397e+00 -7.178425000710e+01 -6.975016377397e+00 -7.178425000710e+01 -1.397352376881e+00 +1.626622759258e+01
 1.50000000e+01 -1.279018228806e+00 +1.466195363115e+01 -7.397932774778e+00 -7.352825437076e+01 -7.397932774778e+00 -7.352825437076e+01 -1.286351850649e+00 +1.449052614765e+01
 1.55000000e+01 -1.177185388556e+00 +1.292570080782e+01 -7.836386736027e+00 -7.523436448257e+01 -7.836386736027e+00 -7.523436448257e+01 -1.184609518961e+00 +1.274827264812e+01
 1.60000000e+01 -1.083887319048e+00 +1.122157386676e+01 -8.291521865959e+00 -7.690346117381e+01 -8.291521865959e+00 -7.690346117381e+01 -1.091405349092e+00 +1.103810362244e+01
 1.65000000e+01 -9.984749287576e-01 +9.548252969921e+00 -8.764674412629e+00 -7.853627954618e+01 -8.764674412629e+00 -7.853627954618e+01 -1.006090306795e+00 +9.358698035495e+00
 1.70000000e+01 -9.203619271933e-01 +7.904463292760e+00 -9.257405617658e+00 -8.013338306508e+01 -9.257405617658e+00 -8.013338306508e+01 -9.280781628627e-01 +7.708779833368e+00
 1.75000000e+01 -8.490177221532e-01 +6.288976627381e+00 -9.771542712086e+00 -8.169513098494e+01 -9.771542712086e+00 -8.169513098494e+01 -8.568383897734e-01 +6.087119554154e+00
 1.80000000e+01 -7.839612387979e-01 +4.700612223112e+00 -1.030923126721e+01 -8.322163611096e+01 -1.030923126721e+01 -8.322163611096e+01 -7.918899801166e-01 +4.492535173791e+00
 1.85000000e+01 -7.247555225145e-01 +3.138237008266e+00 -1.087300267010e+01 -8.471270860574e+01 -1.087300267010e+01 -8.471270860574e+01 -7.327960488316e-01 +2.923892331090e+00
 1.90000000e+01 -6.710030115539e-01 +1.600765315022e+00 -1.146586205737e+01 -8.616777952886e+01 -1.146586205737e+01 -8.616777952886e+01 -6.791591052856e-01 +1.380104054303e+00
 1.95000000e+01 -6.223413845913e-01 +8.715821039152e-02 -1.209140439297e+01 -8.758579458048e+01 -1.209140439297e+01 -8.758579458048e+01 -6.306169003646e-01 -1.398699074667e-01
 2.00000000e+01 -5.784399037931e-01 -1.403577480277e+00 -1.275396999162e+01 -8.896506327594e+01 -1.275396999162e+01 -8.896506327594e+01 -5.868387691754e-01 -1.637024061205e+00
 2.05000000e+01 -5.389961865134e-01 -2.872390385023e+00 -1.345885648718e+01 -9.030303999048e+01 -1.345885648718e+01 -9.030303999048e+01 -5.475224024812e-01 -3.112308382784e+00
 2.10000000e+01 -5.037333489982e-01 -4.320185972255e+00 -1.421261347461e+01 -9.159599811979e+01 -1.421261347461e+01 -9.159599811979e+01 -5.123909902510e-01 -4.566629705403e+00
 2.15000000e+01 -4.723974739375e-01 -5.747828063493e+00 -1.502346148118e+01 -9.283853137155e+01 -1.502346148118e+01 -9.283853137155e+01 -4.811906891513e-01 -6.000853233974e+00
 2.20000000e+01 -4.447553607216e-01 -7.156140431275e+00 -1.590190365110e+01 -9.402276533823e+01 -1.590190365110e+01 -9.402276533823e+01 -4.536883728270e-01 -7.415804144709e+00
 2.25000000e+01 -4.205925231148e-01 -8.545908449205e+00 -1.686164678877e+01 -9.513706281344e+01 -1.686164678877e+01 -9.513706281344e+01 -4.296696296716e-01 -8.812269236757e+00
 2.30000000e+01 -3.997114039817e-01 -9.917880767486e+00 -1.792103984763e+01 -9.616379959797e+01 -1.792103984763e+01 -9.616379959797e+01 -4.089369777077e-01 -1.019099860914e+01
 2.35000000e+01 -3.819297808446e-01 -1.127277099262e+01 -1.910542135022e+01 -9.707532906055e+01 -1.910542135022e+01 -9.707532906055e+01 -3.913082703417e-01 -1.155270734164e+01
 2.40000000e+01 -3.670793395693e-01 -1.261125935442e+01 -2.045116102908e+01 -9.782615026776e+01 -2.045116102908e+01 -9.782615026777e+01 -3.766152702780e-01 -1.289807716266e+01
 2.45000000e+01 -3.550043964652e-01 -1.393399434726e+01 -2.201310008522e+01 -9.833635464972e+01 -2.201310008522e+01 -9.833635464972e+01 -3.647023718629e-01 -1.422775809107e+01
 2.50000000e+01 -3.455607516421e-01 -1.524159433537e+01 -2.387947469452e+01 -9.845250210559e+01 -2.387947469452e+01 -9.845250210559e+01 -3.554254546906e-01 -1.554237004182e+01
 2.55000000e+01 -3.386146586499e-01 -1.653464911485e+01 -2.620544517861e+01 -9.783980941652e+01 -2.620544517861e+01 -9.783980941652e+01 -3.486508534872e-01 -1.684250438794e+01
 2.60000000e+01 -3.340418973143e-01 -1.781372142682e+01 -2.930100038111e+01 -9.560973501115e+01 -2.930100038111e+01 -9.560973501115e+01 -3.442544311745e-01 -1.812872547336e+01
 2.65000000e+01 -3.317269382968e-01 -1.907934841788e+01 -3.391147666873e+01 -8.845685323792e+01 -3.391147666873e+01 -8.845685323792e+01 -3.421207436374e-01 -1.940157207298e+01
 2.70000000e+01 -3.315621893107e-01 -2.033204304575e+01 -4.163926562228e+01 -5.310101389035e+01 -4.163926562228e+01 -5.310101389036e+01 -3.421422861188e-01 -2.066155879755e+01
 2.75000000e+01 -3.334473141375e-01 -2.157229542849e+01 -3.854010128320e+01 +3.314396968474e+01 -3.854010128321e+01 +3.314396968475e+01 -3.442188123833e-01 -2.190917744207e+01
 2.80000000e+01 -3.372886166399e-01 -2.280057413712e+01 -3.221931463490e+01 +5.129379377328e+01 -3.221931463490e+01 +5.129379377328e+01 -3.482567188416e-01 -2.314489827749e+01
 2.85000000e+01 -3.429984828832e-01 -2.401732743177e+01 -2.845105311312e+01 +5.592841358857e+01 -2.845105311312e+01 +5.592841358858e+01 -3.541684867491e-01 -2.436917128581e+01
 2.90000000e+01 -3.504948752758e-01 -2.522298444233e+01 -2.583874613152e+01 +5.747242480043e+01 -2.583874613152e+01 +5.747242480043e+01 -3.618721763861e-01 -2.558242733974e+01
 2.95000000e+01 -3.597008733349e-01 -2.641795629466e+01 -2.385454554510e+01 +5.786486782644e+01 -2.385454554510e+01 +5.786486782644e+01 -3.712909678300e-01 -2.678507932788e+01
 3.00000000e+01 -3.705442562943e-01 -2.760263718416e+01 -2.226196662375e+01 +5.771033028405e+01 -2.226196662375e+01 +5.771033028405e+01 -3.823527435351e-01 -2.797752322733e+01
 3.05000000e+01 -3.829571233020e-01 -2.877740539830e+01 -2.093627687629e+01 +5.725635166694e+01 -2.093627687629e+01 +5.725635166694e+01 -3.949897084755e-01 -2.916013912528e+01
 3.10000000e+01 -3.968755474296e-01 -2.994262429016e+01 -1.980394502993e+01 +5.662265918161e+01 -1.980394502993e+01 +5.662265918162e+01 -4.091380440709e-01 -3.033329219188e+01
 3.15000000e+01 -4.122392601196e-01 -3.109864320519e+01 -1.881806750415e+01 +5.587406961363e+01 -1.881806750415e+01 +5.587406961363e+01 -4.247375925310e-01 -3.149733360617e+01
 3.20000000e+01 -4.289913630679e-01 -3.224579836318e+01 -1.794692339859e+01 +5.504864561213e+01 -1.794692339859e+01 +5.504864561213e+01 -4.417315686156e-01 -3.265260143763e+01
 3.25000000e+01 -4.470780648521e-01 -3.338441369774e+01 -1.716807121098e+01 +5.417015254897e+01 -1.716807121098e+01 +5.417015254898e+01 -4.600662961289e-01 -3.379942148520e+01
 3.30000000e+01 -4.664484399030e-01 -3.451480165564e+01 -1.646505657456e+01 +5.325415441097e+01 -1.646505657456e+01 +5.325415441097e+01 -4.796909667468e-01 -3.493810807635e+01
 3.35000000e+01 -4.870542076662e-01 -3.563726395809e+01 -1.582545951370e+01 +5.231123909575e+01 -1.582545951370e+01 +5.231123909575e+01 -5.005574190308e-01 -3.606896482817e+01
 3.40000000e+01 -5.088495300208e-01 -3.675209232624e+01 -1.523967707651e+01 +5.134883465840e+01 -1.523967707651e+01 +5.134883465840e+01 -5.226199356971e-01 -3.719228537286e+01
 3.45000000e+01 -5.317908252229e-01 -3.785956917313e+01 -1.470013257951e+01 +5.037228558323e+01 -1.470013257951e+01 +5.037228558323e+01 -5.458350574143e-01 -3.830835404975e+01
 3.50000000e+01 -5.558365968127e-01 -3.895996826426e+01 -1.420074394182e+01 +4.938551824935e+01 -1.420074394182e+01 +4.938551824935e+01 -5.701614115688e-01 -3.941744656595e+01
 3.55000000e+01 -5.809472760839e-01 -4.005355534881e+01 -1.373655556898e+01 +4.839146746451e+01 -1.373655556898e+01 +4.839146746451e+01 -5.955595546022e-01 -4.051983062783e+01
 3.60000000e+01 -6.070850768505e-01 -4.114058876370e+01 -1.330347694617e+01 +4.739235841912e+01 -1.330347694617e+01 +4.739235841912e+01 -6.219918266544e-01 -4.161576654523e+01
 3.65000000e+01 -6.342138613723e-01 -4.222132001243e+01 -1.289809287428e+01 +4.638989811809e+01 -1.289809287428e+01 +4.638989811809e+01 -6.494222173773e-01 -4.270550781054e+01
 3.70000000e+01 -6.622990164106e-01 -4.329599432073e+01 -1.251752302237e+01 +4.538540842806e+01 -1.251752302237e+01 +4.538540842806e+01 -6.778162418910e-01 -4.378930165454e+01
 3.75000000e+01 -6.913073384872e-01 -4.436485117093e+01 -1.215931618389e+01 +4.437992047257e+01 -1.215931618389e+01 +4.437992047257e+01 -7.071408259537e-01 -4.486738958088e+01
 3.80000000e+01 -7.212069275063e-01 -4.542812481695e+01 -1.182136943584e+01 +4.337424284030e+01 -1.182136943584e+01 +4.337424284030e+01 -7.373641995066e-01 -4.594000788112e+01
 3.85000000e+01 -7.519670879819e-01 -4.648604478170e+01 -1.150186548332e+01 +4.236901168265e+01 -1.150186548332e+01 +4.236901168265e+01 -7.684557978349e-01 -4.700738813202e+01
 3.90000000e+01 -7.835582371852e-01 -4.753883633882e+01 -1.119922349464e+01 +4.136472805218e+01 -1.119922349464e+01 +4.136472805218e+01 -8.003861696554e-01 -4.806975767702e+01
 3.95000000e+01 -8.159518195906e-01 -4.858672098034e+01 -1.091206008747e+01 +4.036178610127e+01 -1.091206008747e+01 +4.036178610127e+01 -8.331268915106e-01 -4.912734009349e+01
 4.00000000e+01 -8.491202270580e-01 -4.962991687219e+01 -1.063915805270e+01 +3.936049463404e+01 -1.063915805270e+01 +3.936049463404e+01 -8.666504879020e-01 -5.018035564750e+01
 4.05000000e+01 -8.830367242444e-01 -5.066863929905e+01 -1.037944104661e+01 +3.836109375773e+01 -1.037944104661e+01 +3.836109375773e+01 -9.009303566519e-01 -5.122902173787e+01
 4.10000000e+01 -9.176753787823e-01 -5.170310110048e+01 -1.013195293657e+01 +3.736376787534e+01 -1.013195293657e+01 +3.736376787534e+01 -9.359406990297e-01 -5.227355333095e+01
 4.15000000e+01 -9.530109958093e-01 -5.273351309971e+01 -9.895840811515e+00 +3.636865591522e+01 -9.895840811515e+00 +3.636865591522e+01 -9.716564542212e-01 -5.331416338800e+01
 4.20000000e+01 -9.890190564712e-01 -5.376008452695e+01 -9.670340905284e+00 +3.537585945191e+01 -9.670340905284e+00 +3.537585945191e+01 -1.008053237760e+00 -5.435106328659e+01
 4.25000000e+01 -1.025675660059e+00 -5.478302343882e+01 -9.454766854958e+00 +3.438544920203e+01 -9.454766854958e+00 +3.438544920203e+01 -1.045107283574e+00 -5.538446323778e+01
 4.30000000e+01 -1.062957469469e+00 -5.580253713547e+01 -9.248499845973e+00 +3.339747025650e+01 -9.248499845973e+00 +3.339747025650e+01 -1.082795389336e+00 -5.641457270060e+01
 4.35000000e+01 -1.100841659717e+00 -5.681883257717e+01 -9.050980293110e+00 +3.241194632254e+01 -9.050980293110e+00 +3.241194632254e+01 -1.121094864838e+00 -5.744160079558e+01
 4.40000000e+01 -1.139305869244e+00 -5.783211680194e+01 -8.861700780471e+00 +3.142888318326e+01 -8.861700780471e+00 +3.142888318326e+01 -1.159983483122e+00 -5.846575671879e+01
 4.45000000e+01 -1.178328153811e+00 -5.884259734602e+01 -8.680200040187e+00 +3.044827153525e+01 -8.680200040187e+00 +3.044827153525e+01 -1.199439434164e+00 -5.948725015829e+01
 4.50000000e+01 -1.217886942760e+00 -5.985048266886e+01 -8.506057793463e+00 +2.947008932830e+01 -8.506057793463e+00 +2.947008932830e+01 -1.239441280872e+00 -6.050629171455e+01
 4.55000000e+01 -1.257960997495e+00 -6.085598258442e+01 -8.338890311661e+00 +2.849430370463e+01 -8.338890311661e+00 +2.849430370463e+01 -1.279967917251e+00 -6.152309332660e+01
 4.60000000e+01 -1.298529372006e+00 -6.185930870066e+01 -8.178346581967e+00 +2.752087261407e+01 -8.178346581967e+00 +2.752087261407e+01 -1.320998528552e+00 -6.253786870585e+01
 4.65000000e+01 -1.339571375321e+00 -6.286067486913e+01 -8.024104983376e+00 +2.654974616636e+01 -8.024104983376e+00 +2.654974616636e+01 -1.362512553270e+00 -6.355083377930e+01
 4.70000000e+01 -1.381066535771e+00 -6.386029764659e+01 -7.875870395623e+00 +2.558086776907e+01 -7.875870395623e+00 +2.558086776907e+01 -1.404489646883e+00 -6.456220714413e+01
 4.75000000e+01 -1.422994566978e+00 -6.485839677078e+01 -7.733371677235e+00 +2.461417509069e+01 -7.733371677235e+00 +2.461417509069e+01 -1.446909647220e+00 -6.557221053584e+01
 4.80000000e+01 -1.465335335501e+00 -6.585519565254e+01 -7.596359459763e+00 +2.364960088074e+01 -7.596359459763e+00 +2.364960088074e+01 -1.489752541386e+00 -6.658106931191e+01
 4.85000000e+01 -1.508068830093e+00 -6.685092188661e+01 -7.464604214159e+00 +2.268707367323e+01 -7.464604214159e+00 +2.268707367323e+01 -1.532998434189e+00 -6.758901295334e+01
 4.90000000e+01 -1.551175132539e+00 -6.784580778339e+01 -7.337894552432e+00 +2.172651839523e+01 -7.337894552432e+00 +2.172651839523e+01 -1.576627518027e+00 -6.859627558645e+01
 4.95000000e+01 -1.594634390085e+00 -6.884009092449e+01 -7.216035733714e+00 +2.076785689869e+01 -7.216035733714e+00 +2.076785689869e+01 -1.620620044217e+00 -6.960309652748e+01
 5.00000000e+01 -1.638426789472e+00 -6.983401474466e+01 -7.098848348679e+00 +1.981100843096e+01 -7.098848348679e+00 +1.981100843096e+01 -1.664956295790e+00 -7.060972085269e+01
