! Created with skrf 1.12.0 (http://scikit-rf.org).
# GHz S DB R 50.0 
!freq dBS11 angS11 dBS21 angS21 dBS12 angS12 dBS22 angS22
0.01 -29.422479625707588 4.865896060412883 -0.29753514027793504 -0.19467785236977167 -0.29753514027813666 -0.1946778523567717 -29.422471681124836 4.866030442434008
0.02 -29.299690214231823 9.45403824527603 -0.29877402174012235 -0.3832562373345417 -0.2987740217403209 -0.3832562373280417 -29.2996467695758 9.454195669695885
0.1 -27.091730059654708 37.69537992914435 -0.30946065638572906 -1.8463079438679124 -0.30946065638592696 -1.846307943865913 -27.09147259306377 37.69358746017051
0.2 -23.70128948446009 55.13359731399648 -0.3300841048444614 -3.6439050208040675 -0.3300841048446607 -3.6439050208030674 -23.70106981450697 55.127351473284506
0.3 -20.91063489292392 62.79901737396428 -0.3597693664926543 -5.412015930353455 -0.3597693664928533 -5.412015930353454 -20.910937117749867 62.788749958771305
0.4 -18.702513535598474 66.33113860394764 -0.3972293777366314 -7.148281899657322 -0.39722937773683126 -7.148281899656322 -18.70359048839674 66.31955706060756
0.5 -16.91671441667709 67.89124324759572 -0.4412899138257138 -8.854748250354406 -0.44128991382581423 -8.854748250354406 -16.918484623942767 67.88104770200877
0.6 -15.434960987073772 68.39976460564067 -0.4912592756805215 -10.53448261757564 -0.49125927568072153 -10.534482617575637 -15.437173614596478 68.39244646176107
0.7 -14.178253968049779 68.30003070994893 -0.5467653148565697 -12.190019466092009 -0.5467653148567688 -12.190019466092007 -14.180649874463729 68.29588586326163
0.8 -13.093251376998348 67.82649994662755 -0.6076043698769926 -13.823073604443133 -0.6076043698771932 -13.823073604443135 -13.095641653553642 67.82510224303736
0.9 -12.14293097558075 67.11236319202443 -0.6736521333921666 -15.434638416456172 -0.6736521333922686 -15.434638416456172 -12.14520981088172 67.11302338336594
1.0 -11.30084791996798 66.23784092384541 -0.7448152053999975 -17.0251566873311 -0.7448152054000963 -17.025156687331098 -11.302974118391235 66.23989261996017
1.1 -10.547594312274903 65.25374936229967 -0.8210055119446087 -18.5946807132894 -0.8210055119447084 -18.594680713289403 -10.549566004081266 65.2566715224866
1.2 -9.868567608436177 64.19374706948037 -0.9021275962532981 -20.14300345537343 -0.9021275962533987 -20.14300345537343 -9.870401576693661 64.19718363102406
1.3 -9.252528773272694 63.08102746554832 -0.9880732196225583 -21.669759748993563 -0.9880732196226545 -21.66975974899356 -9.254247203212431 63.084759390253204
1.4 -8.690648102764396 61.932135994686696 -1.0787200358122147 -23.174501493781268 -1.0787200358122135 -23.174501493781264 -8.692271665880146 61.93604048320028
1.5 -8.175859314816778 60.7592322362713 -1.1739324292955962 -24.656751928778355 -1.1739324292955948 -24.656751928778355 -8.177404480485123 60.76324591827936
1.6 -7.7024128874635345 59.571478739477676 -1.2735634072172417 -26.1160438338469 -1.2735634072172417 -26.116043833846895 -7.703891593147389 59.57557045068256
1.7 -7.265560914182334 58.37592253124426 -1.3774569177122276 -27.55194569496377 -1.3774569177122287 -27.551945694963766 -7.266981305611803 58.3800757172241
1.8 -6.86133051755678 57.17807248534706 -1.4854502517828694 -28.96407897911767 -1.4854502517828683 -28.96407897911767 -6.862698003500512 57.18227517632709
1.9 -6.486358034538195 55.98228889676992 -1.597376348992747 -30.35212888035138 -1.597376348992747 -30.352128880351373 -6.487676278274832 55.98652886220861
2.0 -6.1377656601470125 54.79205381844651 -1.7130659184035086 -31.71585028142675 -1.7130659184035073 -31.715850281426746 -6.139037359393833 54.796316890659796
2.1 -5.8130682612088105 53.610163666713 -1.8323493363007692 -33.05507021543662 -1.8323493363007692 -33.05507021543663 -5.814295690935766 53.61443378063372
2.2 -5.5101019713658195 52.4388698740142 -1.955058309582507 -34.36968777816787 -1.955058309582507 -34.36968777816787 -5.511287319653503 52.4431298777267
2.3 -5.226968746121928 51.27998399044161 -2.081027308437443 -35.65967220224825 -2.081027308437443 -35.65967220224825 -5.2281142915656424 51.28421666641761
2.4 -4.961992775295352 50.13495790785563 -2.2100947798627826 -36.92505963007864 -2.2100947798627826 -36.92505963007864 -4.963100954254224 50.13914690860617
2.5 -4.713685819013959 49.00494630195168 -2.3421041576996187 -38.16594899547615 -2.3421041576996178 -38.16594899547615 -4.714759223128263 49.00907687027786
2.6 -4.480719340382643 47.89085610380243 -2.4769046868219045 -39.382497328579 -2.4769046868219045 -39.382497328579 -4.481760674995133 47.89491554449405
2.7 -4.261901873213913 46.79338632507275 -2.614352079844642 -40.57491472631122 -2.614352079844644 -40.57491472631122 -4.2629138982041965 46.797364246103236
2.8 -4.0561604646286 45.71306057489559 -2.7543090246232467 -41.743459174279764 -2.7543090246232484 -41.743459174279764 -4.057145931759903 45.71694893890672
2.9 -3.8625253209750015 44.65025394088922 -2.8966455602940053 -42.88843136245259 -2.8966455602940053 -42.88843136245259 -3.8634869162281458 44.654046973884526
3.0 -3.680116995624154 43.605215450342236 -3.041239338732766 -44.010169601180436 -3.041239338732767 -44.01016960118043 -3.681057291011332 43.608909452430204
3.1 -3.5081356117987434 42.57808701026972 -3.1879757872361605 -45.10904491689014 -3.187975787236162 -45.10904491689014 -3.509057028466332 42.58168010659305
3.2 -3.345851728534654 41.568919500632106 -3.336748187077556 -46.18545638374353 -3.336748187077557 -46.18545638374353 -3.3467565112461917 41.57241136323048
3.3 -3.192598544211605 40.5776865350833 -3.4874576813361253 -47.23982672984408 -3.4874576813361253 -47.23982672984408 -3.1934887462949977 40.581078098804845
3.4 -3.0477651974140088 39.60429628706683 -3.64001322415906 -48.27259824223607 -3.6400132241590555 -48.272598242236064 -3.048642674718148 39.60758947585943
3.5 -2.9107909748309435 38.64860169403071 -3.79433148237261 -49.28422898333638 -3.7943314823726118 -49.28422898333638 -2.911657387053409 38.65179916869993
3.6 -2.781160274346268 37.710409288998754 -3.9503366991854967 -50.27518932281188 -3.9503366991864954 -50.2751893228119 -2.7820170920660954 37.713514222742795
3.7 -2.6583982012465506 36.78948686100416 -4.107960528583977 -51.245958781782846 -4.107960528584979 -51.245958781782846 -2.659246717134528 36.79250274603
3.8 -2.542066698767793 35.885570109357516 -4.2671418479550605 -52.197023181139095 -4.2671418479550605 -52.19702318113909 -2.542908041618423 35.88850059510525
3.9 -2.4317611325015505 34.99836842856369 -4.427826555522827 -53.12887208200927 -4.427826555522827 -53.12887208200927 -2.4325962829331402 35.001217190568845
4.0 -2.3271072626254496 34.12756993851882 -4.589967358268461 -54.04199650344597 -4.589967358268463 -54.041996503445965 -2.3279370695375508 34.13034057567425
4.1 -2.22775854949088 33.27284585696842 -4.753523555190188 -54.936886900920854 -4.753523555190187 -54.93688690092085 -2.228583746521971 33.27554181430953
4.2 -2.1333937472823123 32.43385429716995 -4.918460820073986 -55.81403138792615 -4.918460820074987 -55.81403138793615 -2.134214968732792 32.43647881094851
4.3 -2.043714747937506 31.61024356197645 -5.08475098725718 -56.673914182609074 -5.084750987257181 -56.673914182609074 -2.0445325437536224 31.612799623669254
4.4 -1.9584446435124718 30.801654995921876 -5.252371843344888 -57.51701426124788 -5.252371843345889 -57.517014261247894 -1.9592594930704208 30.80414533205217
4.5 -1.877325980093894 30.007725449224377 -5.421306927339109 -58.343804200879866 -5.4213069273391055 -58.34380420087988 -1.8781383046267708 30.010152513824252
4.6 -1.8001191804026695 29.228089400417996 -5.591545341203589 -59.15474919363385 -5.591545341204585 -59.15474919363385 -1.8009293539968367 29.230455377481046
4.7 -1.7266011155098784 28.462380778768193 -5.763081572570117 -59.950306216502774 -5.763081572570117 -59.95030621650276 -1.727409474668842 28.464687592292353
4.8 -1.6565638088734018 27.710234522882192 -5.935915330948052 -60.730923340735416 -5.935915330948049 -60.730923340735416 -1.6573706607009924 27.712483852212618
4.9 -1.5898132581741455 26.97128790705799 -6.1100513985987455 -61.4970391662702 -6.110051398599747 -61.4970391662702 -1.5906188872438942 26.973481205991046
5.0 -1.5261683623545563 26.24518166384182 -6.285499497007065 -62.24908236764891 -6.285499497007065 -62.24908236764891 -1.5269730363774179 26.247320181860562
5.1 -1.4654599428669495 25.53156092750564 -6.462274169729395 -62.98747133858363 -6.462274169729395 -62.98747133859364 -1.4662639172778809 25.533645731938147
5.2 -1.407529849543976 24.830076020441176 -6.640394682315206 -63.712613923625774 -6.640394682315206 -63.71261392363577 -1.4083333711243595 24.832108018742666
5.3 -1.3522301426137393 24.140383102058784 -6.819884939861432 -64.42490722625237 -6.819884939861433 -64.42490722626235 -1.353033452278637 24.14236306333883
5.4 -1.2994223434280352 23.462144697292473 -7.000773422769095 -65.12473748359231 -7.000773422770095 -65.12473748359231 -1.300225678300181 23.464073272698553
5.5 -1.2489767473071625 22.79503012002459 -7.183093141202356 -65.81247999885181 -7.183093141202356 -65.81247999885181 -1.249780342189379 22.79690786153325
5.6 -1.2007717926332375 22.13871580496553 -7.366881608779874 -66.4884991235362 -7.366881608779877 -66.48849912353619 -1.2015758809849322 22.14054318238231
5.7 -1.1546934809938403 21.492885559805195 -7.552180836066227 -67.15314828194353 -7.55218083606623 -67.15314828194352 -1.1554982955091906 21.494662975864692
5.8 -1.110634843701635 20.85723074829481 -7.739037344456914 -67.80677003154389 -7.739037344456916 -67.80677003154388 -1.1114406165759279 20.858958551841777
5.9 -1.0684954505363438 20.23145041350825 -7.9275022011542156 -68.44969615315607 -7.9275022011542156 -68.44969615315607 -1.0693024134899363 20.23312891077108
6.0 -1.0281809569572804 19.61525134960326 -8.117631076019103 -69.08224776558299 -8.117631076019103 -69.08224776558299 -1.0289893410835012 19.616880813650685
6.1 -0.9896026864253514 19.0083481292139 -8.309484321202067 -69.70473545992647 -8.30948432120207 -69.70473545992647 -0.9904127219193484 19.009928807725856
6.2 -0.9526772448009825 18.41046309297538 -8.50312707461361 -70.31745944906005 -8.50312707461361 -70.31745944906005 -0.9534891606100933 18.411995214509098
6.3 -0.9173261640832262 17.82132630676391 -8.698629388458047 -70.92070972847928 -8.698629388458047 -70.92070972847928 -0.9181401875155835 17.822810085615785
6.4 -0.8834755730107301 17.24067549166384 -8.896066384243987 -71.51476624470746 -8.896066384243984 -71.51476624471745 -0.8842919293336968 17.242111131498014
6.5 -0.8510558922842425 16.668255930894787 -9.095518435940805 -72.09989906820516 -9.095518435940805 -72.09989906821517 -0.851874804333633 16.66964362735901
6.6 -0.8200015523772701 16.103820357641805 -9.297071383173291 -72.67636856753101 -9.29707138317429 -72.67636856753101 -0.820823240192547 16.10516030006124
6.7 -0.7902507320846393 15.547128827041611 -9.50081677668344 -73.24442558208122 -9.500816776684438 -73.24442558208122 -0.79107541258425 15.548421199441064
6.8 -0.7617451161304268 14.997948575347863 -9.706852158593366 -73.80431159068571 -9.706852158593367 -73.80431159068571 -0.7625730028337117 14.999193556753026
6.9 -0.7344296703045955 14.456053868628734 -9.915281380430153 -74.35625887358748 -9.915281380430153 -74.35625887358748 -0.7352609731038157 14.457251633006848
7.0 -0.7082524327323192 13.921225843489879 -10.126214962307373 -74.90049066525327 -10.126214962307367 -74.90049066525327 -0.7090873577176328 13.922376559280172
7.1 -0.6831643200037324 13.393252341505695 -10.339770497146837 -75.43722129563227 -10.339770497146834 -75.43722129563227 -0.6840030693402801 13.394356170850049
7.2 -0.6591189470006897 12.87192773918204 -10.55607310451537 -75.96665631742044 -10.55607310451537 -75.96665631742044 -0.6599617188550937 12.872984837046095
7.3 -0.6360724593571722 12.357052774803144 -10.775255939165833 -76.4889926166779 -10.775255939165831 -76.48899261667792 -0.63691944787057 12.358063287938235
7.4 -0.6139833775813787 11.848434373515577 -10.997460760362044 -77.00441850413677 -10.997460760362046 -77.00441850414676 -0.614834772884202 11.849398439381694
7.5 -0.5928124519452569 11.345885471561939 -11.222838568940945 -77.51311378431697 -11.222838568940944 -77.51311378431697 -0.5936684402096128 11.346803217271924
7.6 -0.5725225273282353 10.849224840786775 -11.451550319973268 -78.01524979900782 -11.451550319973267 -78.01524979901784 -0.5733832908531193 10.850096382031994
7.7 -0.5530784172628551 10.358276913937209 -11.683767720453165 -78.51098944184305 -11.683767720453165 -78.51098944184305 -0.5539441345860383 10.359102354064857
7.8 -0.534446786496147 9.87287161163753 -11.919674122796875 -79.00048713934697 -11.919674122796874 -79.00048713935698 -0.5353176325294948 9.873651040739684
7.9 -0.5165960414335388 9.39284417147706 -12.159465526490806 -79.48388879419008 -12.159465526490802 -79.48388879420007 -0.5174721876146688 9.393577665633687
8.0 -0.4994962278847736 8.918034979692132 -12.403351702809156 -79.96133168462197 -12.403351702809157 -79.96133168463197 -0.5003778423436671 8.918722600295132
8.1 -0.4831189355776077 8.448289405809419 -12.651557459571222 -80.43294431384956 -12.651557459571222 -80.43294431385956 -0.4840061833115604 8.448931199019716
8.2 -0.4674372089476164 7.983457640584198 -12.904324065938651 -80.89884620135942 -12.904324065938646 -80.89884620136942 -0.46833025200213574 7.984053636900126
8.3 -0.45242546375018405 7.523394537453378 -13.161910861232611 -81.35914760696191 -13.161910861242607 -81.3591476069719 -0.45332446140243926 7.523944751391271
8.4 -0.4380594090779002 7.067959457712955 -13.424597075381078 -81.81394917627624 -13.424597075381078 -81.81394917627624 -0.43896451802005215 7.068463887599093
8.5 -0.4243159743985985 6.617016119556246 -13.692683894406361 -82.26334149405461 -13.692683894406361 -82.26334149405461 -0.42522734891869896 6.6174747474161775
8.6 -0.4111732412583568 6.170432451089513 -13.96649681046277 -82.70740452876423 -13.966496810462768 -82.70740452877423 -0.4120910334163189 6.170845242627743
8.7 -0.3986103793211748 5.728080447381153 -14.246388303544748 -83.14620694813597 -14.246388303544748 -83.14620694814595 -0.3995347391193098 5.728447352045249
8.8 -0.3866075864447649 5.289836031598706 -14.532740911775273 -83.57980528047841 -14.532740911775273 -83.5798052804884 -0.3875386619908613 5.2901569827128725
8.9 -0.37514603250958856 4.8555789202489334 -14.825970758844694 -84.00824289083648 -14.825970758844695 -84.00824289084649 -0.3760839701719382 4.855853835208939
9.0 -0.36420780674440256 4.425192492505903 -15.126531621710065 -84.43154873313314 -15.126531621710066 -84.43154873314313 -0.3651527512985408 4.425421273031477
9.1 -0.3537758683091752 3.998563663615157 -15.434919640184873 -84.84973582952351 -15.43491964018487 -84.84973582953349 -0.3547279630752725 3.998746196034747
9.2 -0.34383399991216196 3.5755827623258774 -15.75167879295931 -85.26279941549076 -15.751678792959314 -85.26279941550074 -0.3447933868841062 3.575718917903789
9.3 -0.33436676425849166 3.1561434122989156 -16.077407293841027 -85.6707146721923 -16.077407293841027 -85.6707146721923 -0.33533358422342735 3.1562330475797786
9.4 -0.32535946313774217 2.7401424174354743 -16.41276509953641 -86.07343394558632 -16.41276509953641 -86.07343394558632 -0.32633385578725976 2.7401853746129934
9.5 -0.31679809897617983 2.327479651041198 -16.75848276815238 -86.47088332224703 -16.75848276816238 -86.47088332224703 -0.31778020300970755 2.32747575833013
9.6 -0.30866933869045066 1.918057948752375 -17.11537197011865 -86.86295839236895 -17.115371970118648 -86.86295839237893 -0.309659291910271 1.918007020772701
9.7 -0.3009604796896454 1.511783005144865 -17.484338035020592 -87.24951897684868 -17.484338035020592 -87.2495189768587 -0.30195841908928883 1.5116848432980656
9.8 -0.2936594178870163 1.1085632739243862 -17.86639502586254 -87.63038252201451 -17.86639502586254 -87.63038252202452 -0.29466547973274615 1.1084176667707528
9.9 -0.2867546175893174 0.7083098716100005 -18.262683976391664 -88.00531576382235 -18.262683976391664 -88.00531576383236 -0.2877689374958746 0.7081165952361099
10.0 -0.2802350831434632 0.3109364846201958 -18.674495122312244 -88.37402412101835 -18.674495122312244 -88.37402412102837 -0.28125779614493285 0.310695302993054
10.1 -0.27409033222765633 -0.08364072034443956 -19.10329522298053 -88.73613807368736 -19.10329522298053 -88.73613807369735 -0.27512157284345945 -0.08393005503301093
10.2 -0.2683103706814532 -0.4755031827150575 -19.55076143877001 -89.09119549181659 -19.55076143877001 -89.09119549182661 -0.26935027297844794 -0.47584092971955855
10.3 -0.26288566877811625 -0.8647300313618969 -20.018823745777187 -89.43861844957486 -20.018823745777187 -89.43861844958485 -0.2639343664297197 -0.865116461069604
10.4 -0.2578071388486999 -1.251398164897808 -20.509718605797794 -89.77768242341583 -20.509718605797794 -89.77768242342582 -0.2588647651913803 -1.2518335585295748
10.5 -0.25306611417130215 -1.6355823290681557 -21.026057675093387 -90.10747480202639 -21.026057675093387 -90.10747480203639 -0.254132802258906 -1.6360669783973631
10.6 -0.24865432905038481 -2.0173551913355543 -21.57091690748849 -90.42683813359851 -21.57091690748849 -90.4268381336185 -0.24973021170735285 -2.0178893984158126
10.7 -0.24456390000939934 -2.396787412735118 -22.147953772127998 -90.73429115176504 -22.147953772138 -90.73429115178503 -0.245649109882719 -2.3973714896479645
10.8 -0.24078730803046494 -2.7739477171122178 -22.761563945045154 -91.02791674290923 -22.76156394505516 -91.02791674292925 -0.24188197764151853 -2.774581985724872
10.9 -0.2373173817762697 -3.148902957825402 -23.41709457273971 -91.30519952543717 -23.417094572739707 -91.30519952545718 -0.23842164357238724 -3.149587749558713
11.0 -0.23414728173576332 -3.521718182003421 -24.121140516246598 -91.56278449099344 -24.121140516246598 -91.56278449100346 -0.23526126814185755 -3.5224538376091563
11.1 -0.23127048523652904 -3.89245669244117 -24.881965574014956 -91.79610804777957 -24.881965574014956 -91.79610804779958 -0.23239432870843968 -3.8932435617897796
11.2 -0.22868077227407768 -4.261180107228267 -25.71011775302737 -91.99881522860507 -25.71011775302737 -91.99881522862508 -0.22981460535144266 -4.262018549100341
11.3 -0.22637221210716038 -4.6279484171861975 -26.61935668081962 -92.16180313319089 -26.61935668081962 -92.1618031332109 -0.22751616746919442 -4.628838799065704
11.4 -0.2243391505766083 -4.992820041192705 -27.628104492800563 -92.27157771243525 -27.628104492800563 -92.27157771246524 -0.22549336109773616 -4.993762739066251
11.5 -0.22257619810259305 -5.355851879473384 -28.761819511162464 -92.30727126161143 -28.761819511162464 -92.30727126163141 -0.22374079691122348 -5.356847277628648
11.6 -0.22107821832322805 -5.717099364944268 -30.057098620971537 -92.23484859463768 -30.057098620981524 -92.23484859466768 -0.22225333886114573 -5.718147855762779
11.7 -0.21984031733526732 -6.076616512658256 -31.569273375518737 -91.99483978367881 -31.569273375518737 -91.99483978372882 -0.22102609341985274 -6.077718496404736
11.8 -0.21885783350410443 -6.4344559674502975 -33.38779055505093 -91.47325459471973 -33.38779055505093 -91.47325459475974 -0.2200543993923622 -6.435611852056754
11.9 -0.2181263278096482 -6.790669049827195 -35.6713538306322 -90.42094797341032 -35.6713538306422 -90.42094797347033 -0.2193338182639284 -6.791879250667949
12.0 -0.21764157469697487 -7.145305800185871 -38.74334055074543 -88.17137498016199 -38.74334055075542 -88.17137498025198 -0.21886012505381966 -7.146570739842766
12.1 -0.21739955340584466 -7.498415021412091 -43.42856384120414 -82.17248872611556 -43.42856384121414 -82.17248872625557 -0.21862929964588 -7.49973512942007
12.2 -0.21739643974871004 -7.85004431992245 -52.44756292079451 -50.263856190840556 -52.447562920854516 -50.263856191070545 -0.21863751856989674 -7.851420032512723
12.3 -0.21762859831540626 -8.200240145216567 -48.65342567022766 53.6248261057844 -48.653425670237674 53.6248261060544 -0.21888114720775192 -8.201671905031665
12.4 -0.21809257507924568 -8.549047827988487 -41.64312264736206 69.40356140037989 -41.64312264736206 69.40356140051989 -0.2193567324021109 -8.550536083781303
12.5 -0.21878509038333024 -8.896511616850058 -37.70640490979612 73.54349012576309 -37.70640490979612 73.5434901258431 -0.22006099544411448 -8.898056823168272
12.6 -0.21970303228487703 -9.242674713728348 -35.00072199137112 75.26851580065393 -35.000721991371115 75.26851580071394 -0.22099082542108245 -9.244277330568377
12.7 -0.22084345024131596 -9.587579307982034 -32.94439084669407 76.11036124886049 -32.94439084669407 76.1103612489105 -0.22214327290316746 -9.5892398004228
12.8 -0.22220354911533624 -9.931266609281545 -31.28803729754093 76.5333538058931 -31.288037297540928 76.53335380594312 -0.2235155439513511 -9.932985447092362
12.9 -0.22378068348644806 -10.273776879317156 -29.90253527360985 76.72542992641823 -29.902535273609846 76.72542992645823 -0.2251049944302291 -10.27555453652894
13.0 -0.22557235224957603 -10.615149462328773 -28.71250095015466 76.7769994735708 -28.712500950154663 76.7769994736008 -0.2269091246082512 -10.61698641680792
13.1 -0.2275761934864079 -10.955422814616448 -27.67012923538841 76.73690036884624 -27.67012923538841 76.73690036887622 -0.22892557403081026 -10.95731954755563
13.2 -0.22978997959647357 -11.29463453290461 -26.74321236089709 76.63381143099156 -26.74321236089709 76.63381143101155 -0.23115211665277743 -11.296591528328806
13.3 -0.2322116126727194 -11.63282138175493 -25.909023958223464 76.48567098749578 -25.909023958223464 76.48567098751579 -0.23358665621498992 -11.634839125960964
13.4 -0.234839120110516 -11.970019319969783 -25.15093187554099 76.30426786826972 -25.15093187554099 76.30426786828971 -0.23622722185433526 -11.972098300960727
13.5 -0.2376706504363279 -12.30626352608626 -24.45639901172794 76.09766370038487 -24.456399011717934 76.09766370040487 -0.23907196393368385 -12.308404232931034
13.6 -0.24070446934726075 -12.64158842293082 -23.815741538371462 75.87155420310204 -23.815741538371462 75.87155420312203 -0.24211915008182722 -12.643791345129225
13.7 -0.243938955949367 -12.976027701314367 -23.221324526991918 75.63007467646902 -23.221324526991918 75.63007467648903 -0.2453671614319294 -12.97829332809803
13.8 -0.24737259918405852 -13.309614342927885 -22.667022303987203 75.37629752094792 -22.667022303987203 75.37629752095792 -0.2488144890492608 -13.31194316249734
13.9 -0.25100399443556504 -13.642380642348531 -22.14784546068713 75.1125509082417 -22.14784546068713 75.11255090825172 -0.25245973053774473 -13.644773141136893
14.0 -0.254831840308852 -13.974358228366174 -21.65967636105806 74.8406293590203 -21.65967636105806 74.8406293590303 -0.2563015868182914 -13.976814890199723
