! Created with skrf 1.12.0 (http://scikit-rf.org).
# GHz S DB R 50.0 
!freq dBS11 angS11 dBS21 angS21 dBS12 angS12 dBS22 angS22
0.01 -27.275198082273107 3.44833161267239 -0.3835550443426625 -0.18066856200797649 -0.3835550443428601 -0.18066856199987646 -27.275198126575848 3.4483459947525352
0.02 -27.224735140243844 6.869025435925949 -0.3837376555658798 -0.36130810949570785 -0.3837376555660783 -0.36130810949160796 -27.22470985609439 6.868964029544813
0.1 -25.856044104011005 30.745925311911588 -0.3894262548183003 -1.8034819085561187 -0.3894262548183991 -1.8034819085551188 -25.855858217420217 30.74341872610064
0.2 -23.175349391624547 48.807465136386064 -0.40637370552228547 -3.591018014474909 -0.4063737055223825 -3.591018014473908 -23.175310277719085 48.800158551109774
0.3 -20.674995728571655 57.96505014655289 -0.43262483432755766 -5.35445501976542 -0.43262483432765897 -5.35445501976542 -20.675610840561845 57.954059252872696
0.4 -18.583713113307684 62.64616084273286 -0.46668131929060586 -7.09295692707181 -0.4666813192906069 -7.092956927070808 -18.5851619066479 62.63477119333806
0.5 -16.845385559412986 65.00713888322282 -0.50766910813498 -8.808525174992065 -0.507669108134979 -8.808525174992065 -16.847477393860537 64.9980490020025
0.6 -15.381431768833455 66.0700737844979 -0.5551700971279668 -10.502996979884152 -0.5551700971280675 -10.502996979874155 -15.383852407646897 66.0643142180641
0.7 -14.129418572681818 66.35694683533474 -0.6089815176598334 -12.17722248655792 -0.6089815176598334 -12.17722248655792 -14.131910616298386 66.35432032537689
0.8 -13.04354642021767 66.15514837050297 -0.668968473806433 -13.8311820355834 -0.668968473806433 -13.831182035583398 -13.045957139996517 66.15494897500976
0.9 -12.090409661661727 65.6332841677193 -0.734996047566185 -15.464304899757737 -0.734996047566186 -15.464304899757737 -12.09267180007511 65.63475645372199
1.0 -11.245316161439977 64.89564562052658 -0.8069056124921743 -17.07574727116983 -0.8069056124921743 -17.07574727116983 -11.247414971409317 64.89817496010019
1.1 -10.489673134284612 64.00967961383105 -0.8845117748995251 -18.66458180699726 -0.8845117748995251 -18.66458180699726 -10.491620118031301 64.01283027376437
1.2 -9.80920697446104 63.02068472120975 -0.9676072429724061 -20.229910524563618 -0.9676072429724072 -20.22991052456362 -9.81102349427331 63.024175346570026
1.3 -9.192754428699827 61.960076940845376 -1.0559696342034743 -21.770924693262387 -1.0559696342034743 -21.77092469326239 -9.194462943066037 61.963739853020506
1.4 -8.631433262066881 60.850244492177595 -1.1493678099553786 -23.28693202171633 -1.1493678099553786 -23.286932021716336 -8.633053360685084 60.85398783314165
1.5 -8.11806459698527 59.70751057992471 -1.2475670101236758 -24.777365127367112 -1.2475670101236758 -24.777365127367112 -8.119611719972063 59.71128899101621
1.6 -7.646763712338407 58.54400461749595 -1.3503327531793932 -26.24177996624608 -1.3503327531793932 -26.24177996624609 -7.648249218805397 58.54779866362851
1.7 -7.212645164670902 57.368881141583955 -1.457433698033499 -27.67984928111228 -1.4574336980334968 -27.67984928111228 -7.214076981746743 57.37268389233169
1.8 -6.81160671262107 56.18913623098826 -1.5686437039192078 -29.09135388454153 -1.5686437039192078 -29.09135388454153 -6.812990152477397 56.19294512366151
1.9 -6.440168448116736 55.01016822010517 -1.683743296040758 -30.476173276161713 -1.683743296040758 -30.476173276161713 -6.441506989468032 55.01398057604652
2.0 -6.095351230404451 53.836171587492174 -1.8025206996451395 -31.834276347170167 -1.8025206996451395 -31.834276347170167 -6.09664717750138 53.83998252359005
2.1 -5.774583539016616 52.670419347382676 -1.9247725625193837 -33.16571251503342 -1.9247725625193837 -33.16571251503342 -5.775838533126524 52.67422117050571
2.2 -5.47562918152823 51.51546927607931 -2.050304451423594 -34.4706034164866 -2.050304451423594 -34.4706034164866 -5.476844570782764 51.519251727110316
2.3 -5.196530518817932 50.37331707081485 -2.1789311820826422 -35.74913518014805 -2.1789311820826422 -35.74913518014805 -5.197707605945187 50.377067994268884
2.4 -4.9355633863025545 49.24551186590071 -2.3104770238676404 -37.0015512535934 -2.310477023867639 -37.00155125359339 -4.936703578174028 49.24921803283447
2.5 -4.691200936617272 48.133244608353735 -2.444775807485331 -38.22814574433304 -2.444775807485331 -38.228145744333034 -4.692305819220029 48.13689252689236
2.6 -4.462084362906067 47.03741656943488 -2.581670955448172 -39.42925723365897 -2.581670955448171 -39.42925723365897 -4.463155722774354 47.040993190652365
2.7 -4.246998983162308 45.958693113455595 -2.7210154494855594 -40.60526302803006 -2.7210154494855603 -40.605263028030066 -4.248038792863785 45.96218638935944
2.8 -4.044854541441304 44.89754638058562 -2.862671745558793 -41.756573819711036 -2.862671745558793 -41.75657381971103 -4.045864923142874 44.90094566307762
2.9 -3.8546688553947046 43.854289529186374 -3.0065116448665714 -42.88362873460017 -3.006511644866573 -42.88362873460017 -3.855652033192701 43.857585818023026
3.0 -3.675554141382951 42.82910447486987 -3.1524161279226206 -43.986890750172385 -3.152416127922622 -43.98689075017238 -3.6765123901701586 42.83229053378088
3.1 -3.5067054989216864 41.82206456153028 -3.300275157882613 -45.06684246883076 -3.300275157882612 -45.066842468830764 -3.5076410951046304 41.825134926410215
3.2 -3.3473911494252913 40.83315323912909 -3.449987458718506 -46.12398223419177 -3.449987458718506 -46.12398223419177 -3.3483063268859588 40.83610414347436
3.3 -3.1969441103566827 39.862279561914455 -3.6014602733994523 -47.1588205776238 -3.6014602733994523 -47.1588205776238 -3.1978410235016286 39.86510880311067
3.4 -3.054755051767311 38.90929112942985 -3.754609106859422 -48.171876982502894 -3.7546091068594207 -48.1718769825029 -3.0556357464353385 38.91199789687304
3.5 -2.9202661331897293 37.9739849511851 -3.9093574581404384 -49.16367695255737 -3.9093574581404384 -49.16367695255738 -2.92113252537189 37.976569633606104
3.6 -2.7929656584300844 37.056116610350884 -4.065636545780422 -50.13474937028024 -4.065636545780422 -50.13474937028024 -2.7938195202633125 37.05858059637575
3.7 -2.672383416820463 36.15540802234667 -4.223385030104216 -51.085624130092874 -4.223385030104216 -51.08562413009288 -2.6732263690031837 36.15775350467887
3.8 -2.5580866039737824 35.271554023763024 -4.38254873571524 -52.01683003052644 -4.3825487357152415 -52.016830030526435 -2.5589201136110233 35.27378381454454
3.9 -2.449676234450794 34.40422798094608 -4.543080377149643 -52.92889290912991 -4.5430803771496455 -52.9288929091299 -2.450501617289308 34.40634534322519
4.0 -2.346783974220529 33.55308657156416 -4.7049392902400236 -53.82233400342573 -4.7049392902400236 -53.82233400342573 -2.3476024002961267 33.55509506967899
4.1 -2.2490693332111755 32.717773864742824 -4.868091171448823 -54.697668521305125 -4.868091171448825 -54.697668521305125 -2.2498818349948073 32.719677234849556
4.2 -2.1562171682572533 31.897924803313547 -5.03250782708368 -55.55540440436693 -5.03250782708368 -55.55540440436694 -2.1570246505177644 31.899726844158877
4.3 -2.0679354548340427 31.093168174291534 -5.198166934029995 -56.39604126785591 -5.198166934029994 -56.396041267855914 -2.06873870555567 31.09487265725874
4.4 -1.9839532926290055 30.30312913974027 -5.365051813351309 -57.220069501728176 -5.36505181335131 -57.220069501728176 -1.98475299442666 30.304739736838997
4.5 -1.9040191153590404 29.527431388822798 -5.53315121790591 -58.02796951745459 -5.53315121790591 -58.02796951745458 -1.9048158569706806 29.52895161686217
4.6 -1.8278990797321069 28.765698962702942 -5.702459134895016 -58.8202111264558 -5.702459134895015 -58.8202111264558 -1.8286933672624346 28.767132141778344
4.7 -1.7553756121201634 28.017557796372397 -5.87297460409436 -59.59725303625665 -5.87297460409436 -59.59725303625665 -1.756167879780517 28.018907020666123
4.8 -1.6862460945674365 27.28263701521374 -6.044701552376939 -60.35954245173177 -6.044701552376939 -60.35954245173177 -1.6870367147614427 27.28390513429951
4.9 -1.6203216743105626 26.560570018851077 -6.217648645022575 -61.10751476938955 -6.217648645022573 -61.10751476938955 -1.6211109669432107 26.561759627663484
5.0 -1.557426183129931 25.850995380374638 -6.391829154199204 -61.841593353526676 -6.391829154199207 -61.84159335352666 -1.5582144241000853 25.852108816363337
5.1 -1.4973951546492368 25.153557585516573 -6.5672608449462375 -62.562189383961794 -6.5672608449462375 -62.562189383961794 -1.4981825834830496 25.154596931426557
5.2 -1.440074929216364 24.467907632859184 -6.743965878963612 -63.26970176576344 -6.743965878963614 -63.26970176576344 -1.4408617558743355 24.468874723907252
5.3 -1.3853218373184233 23.793703513627584 -6.921970736445701 -63.964517092364 -6.921970736445702 -63.964517092364 -1.386108248178186 23.794599948106185
5.4 -1.3330014535493084 23.13061058733188 -7.101306156246104 -64.64700965388913 -7.101306156246104 -64.64700965388913 -1.3337876166338891 23.131437739550826
5.5 -1.2829879141316025 22.47830186720452 -7.2820070946313 -65.31754148345983 -7.2820070946313 -65.31754148345983 -1.2837739836078783 22.47906090215173
5.6 -1.2351632917805366 21.836458227991 -7.464112702970668 -65.97646243474259 -7.464112702970668 -65.97646243474259 -1.2359494118125178 21.83715011693253
5.7 -1.1894170224234726 21.204768546711776 -7.647666324701455 -66.62411028466074 -7.647666324701454 -66.62411028466073 -1.1902033304179818 21.20539408340277
5.8 -1.1456453788761647 20.58292978611619 -7.832715512041863 -67.26081085564982 -7.832715512041863 -67.26081085564982 -1.1464320081954553 20.583489603002803
5.9 -1.1037509871289455 19.97064702890801 -8.019312062962307 -67.88687815235822 -8.019312062962305 -67.88687815235822 -1.1045380693186924 19.971141613151687
6.0 -1.0636423813407705 19.367633470124428 -8.207512079077864 -68.50261450816274 -8.207512079077867 -68.50261450816274 -1.0644300479357542 19.368063179179025
6.1 -1.0252335940557002 18.773610374130026 -8.397376045212397 -69.10831073709943 -8.397376045212399 -69.10831073709943 -1.0260219780146849 18.77397545058267
6.2 -0.9884437785148534 18.188307001537847 -8.588968931548065 -69.70424628723818 -8.588968931548065 -69.70424628723818 -0.9892330153322824 18.188607587214207
6.3 -0.9531968602461494 17.611460511180137 -8.78236031945159 -70.29068939175987 -8.782360319451588 -70.29068939175987 -0.953987088779863 17.61169666038491
6.4 -0.9194212153906955 17.042815841281488 -8.977624552235483 -70.86789721419375 -8.977624552235483 -70.86789721419376 -0.9202125784547985 17.04298753308463
6.5 -0.8870493734819173 16.48212557351709 -9.174840912342399 -71.43611598431383 -9.174840912342397 -71.43611598431383 -0.8878420182349926 16.482232723046582
6.6 -0.8560177426034528 15.929149783199273 -9.374093826689618 -71.995581121501 -9.374093826689618 -71.995581121501 -0.8568118207661399 15.92919225208085
6.7 -0.8262663550517586 15.383655878425127 -9.57547310217359 -72.5465173421791 -9.57547310217359 -72.5465173421791 -0.8270620229822258 15.383633484159684
6.8 -0.797738631803946 14.845418430618388 -9.77907419366924 -73.08913874802221 -9.779074193669238 -73.08913874803223 -0.7985360504556981 14.84533095515748
6.9 -0.7703811642464241 14.314218998528473 -9.984998507212955 -73.62364889153082 -9.984998507212952 -73.62364889153082 -0.7711804990322932 14.314066195868454
7.0 -0.7441435117628639 13.789845947569654 -10.193353741462625 -74.15024081524392 -10.193353741462627 -74.15024081524392 -0.7449449323422868 13.78962755056483
7.1 -0.7189780139031167 13.272094265973204 -10.404254271003541 -74.66909706085504 -10.40425427100354 -74.66909706085504 -0.7197816939103757 13.271809992378484
7.2 -0.6948396159700938 12.760765379235293 -10.61782157564852 -75.18038964392957 -10.617821575648524 -75.18038964392956 -0.6956457326982334 12.760414936968667
7.3 -0.6716857069637714 12.255666963863295 -10.834184720399714 -75.68427998957063 -10.834184720399712 -75.68427998957063 -0.6724944410153498 12.25525005556853
7.4 -0.6494759689127104 11.756612761493116 -11.053480891634477 -76.18091882370196 -11.053480891634477 -76.18091882370196 -0.6502875038286581 11.756129088522938
7.5 -0.6281722367091482 11.263422394159932 -11.275855995729758 -76.6704460141947 -11.275855995729762 -76.6704460141947 -0.628986758584254 11.26287165992999
7.6 -0.6077383676353781 10.775921181444705 -11.50146532741508 -77.15299035473681 -11.50146532741508 -77.15299035473681 -0.6085560647283688 10.775303094258652
7.7 -0.5881401198439136 10.293939960018665 -11.730474316334597 -77.62866928374235 -11.730474316334593 -77.62866928374235 -0.5889611821863541 10.293254235424454
7.8 -0.5693450391080557 9.817314906195936 -11.963059361488337 -78.0975885289591 -11.963059361498335 -78.09758852895908 -0.5701696581200321 9.816561268881644
7.9 -0.551322353223753 9.345887361687124 -12.199408764962827 -78.55984166690271 -12.199408764962827 -78.55984166690271 -0.5521507213381774 9.345065546966474
8.0 -0.5340428734888307 8.879503663072905 -12.439723778011354 -79.01550958443552 -12.439723778011354 -79.01550958443552 -0.5348751837885004 8.878613418032593
8.1 -0.5174789027372009 8.418014975108285 -12.684219775053851 -79.46465982706826 -12.684219775053853 -79.46465982706826 -0.5183153486073401 8.417056059417344
8.2 -0.5016041494434481 7.9612771281151815 -12.933127573466766 -79.9073458161535 -12.933127573466766 -79.90734581615348 -0.5024449242416723 7.960249314549411
8.3 -0.4863936474568422 7.509150459582892 -13.18669492035282 -80.34360591288896 -13.186694920352824 -80.34360591288896 -0.4872389442018953 7.508053534296561
8.4 -0.4718236809553272 7.061499660088896 -13.445188171320787 -80.7734623031898 -13.445188171320787 -80.7734623031898 -0.4726736920358193 7.0603334226577275
8.5 -0.45787171424470974 6.618193623600363 -13.708894190635501 -81.196919671538 -13.708894190635501 -81.196919671538 -0.45872663114861034 6.616957886866899
8.6 -0.44451632605676755 6.179105302180603 -13.97812250778798 -81.61396362540827 -13.97812250778798 -81.61396362540827 -0.44537633912208485 6.177799891933039
8.7 -0.431737148027137 5.7441115651286685 -14.253207772285856 -82.02455882284893 -14.253207772285858 -82.02455882284893 -0.43260244621336497 5.7427363196211445
8.8 -0.4195148070592858 5.313093062506214 -14.534512556424106 -82.42864674553682 -14.534512556424106 -82.42864674553682 -0.4203855777408997 5.311647831857667
8.9 -0.4078308713021076 4.885934093043624 -14.822430566326041 -82.82614304543566 -14.822430566326044 -82.82614304543566 -0.40870730008262024 4.884418738528172
9.0 -0.3966677994920271 4.462522476359416 -15.117390333714818 -83.21693437626601 -15.117390333714818 -83.21693437626601 -0.39755007003812937 4.460936869606276
9.1 -0.3860088934251102 4.042749429426731 -15.419859476665163 -83.60087459831705 -15.419859476665163 -83.60087459831705 -0.3868971873219843 4.041093451541717
9.2 -0.37583825334811016 3.626509447220863 -15.730349636995642 -83.97778021668896 -15.730349636995642 -83.97778021668896 -0.37673274997374023 3.624782987854393
9.3 -0.3661407360679459 3.213700187460479 -16.04942222675128 -84.34742487565457 -16.04942222675128 -84.34742487565457 -0.36704161248613043 3.211903143821133
9.4 -0.3569019155967391 2.8042223593383477 -16.377695147366637 -84.70953268270077 -16.377695147366637 -84.70953268270077 -0.3578093464687381 2.8023546351838666
9.5 -0.3481080461634994 2.397979616170187 -16.715850684959328 -85.06377007153807 -16.71585068495933 -85.06377007153807 -0.3490222036770747 2.3960411207609678
9.6 -0.33974602743322874 1.9948784518392926 -17.064644837153935 -85.40973582694816 -17.06464483715393 -85.40973582694816 -0.340667081248108 1.992869098883236
9.7 -0.3318033717895797 1.5948281009315008 -17.424918393246426 -85.74694877854873 -17.424918393246426 -85.74694877854873 -0.3327314889991842 1.592747807532225
9.8 -0.32426817354370896 1.1977404424810276 -17.797610177788933 -86.07483251308534 -17.797610177788926 -86.07483251308534 -0.32520351865206903 1.1955891280713478
9.9 -0.31712907994577555 0.8035299071855109 -18.183772983565028 -86.3926962384794 -18.18377298356503 -86.3926962384794 -0.31807181485820835 0.801307492483127
10.0 -0.3103752638806055 0.41211338800307845 -18.584592875505393 -86.69971063159224 -18.584592875505393 -86.69971063159224 -0.311325547908688 0.40981979398029
10.1 -0.30399639814050544 0.0234101540238331 -19.001412757043873 -86.99487707852468 -19.001412757043873 -86.99487707852468 -0.30495438801928076 0.02104530089417261
10.2 -0.2979826311736299 -0.3626582325007653 -19.435761377654014 -87.27698811120166 -19.435761377654014 -87.27698811120166 -0.29894848109120803 -0.3650944262655458
10.3 -0.2923245642157602 -0.7461679960697197 -19.88938935829593 -87.54457596845167 -19.88938935829593 -87.54457596845167 -0.2932984258536432 -0.7486756146934136
10.4 -0.2870132297163755 -1.1271932248901213 -20.364314370183575 -87.79584492104058 -20.364314370183575 -87.79584492104058 -0.2879952523007185 -1.1297723562108848
10.5 -0.2820400709795226 -1.5058059449873118 -20.86287839882246 -88.02858106988984 -20.862878398822456 -88.02858106988984 -0.28303040134207114 -1.508456681335844
10.6 -0.2773969229438927 -1.882076191557811 -21.387821179267597 -88.24003038042824 -21.387821179267604 -88.24003038042824 -0.2783957055918262 -1.8847986305998994
10.7 -0.27307599403103344 -2.2560720776838368 -21.94237559041195 -88.42673112261737 -21.94237559041195 -88.42673112261737 -0.27408337122524706 -2.258866323208294
10.8 -0.2690698489974096 -2.6278598604760726 -22.530393356375136 -88.58427955685057 -22.530393356375136 -88.58427955685057 -0.27008596083827563 -2.6307260231485188
10.9 -0.26537139272747984 -2.997504004763866 -23.15651333707247 -88.70699570400483 -23.15651333707247 -88.70699570400483 -0.26639637724799875 -3.000442202823364
11.0 -0.2619738549129449 -3.3650672444124172 -23.82639088424437 -88.78743580945569 -23.82639088424437 -88.78743580945569 -0.2630078481782112 -3.36807760431912
11.1 -0.2588707755635606 -3.7306106413567814 -24.547016753036054 -88.81566288699489 -24.547016753036054 -88.81566288699489 -0.2599139117753773 -3.7336932983867235
11.2 -0.25605599129994244 -4.094193642431456 -25.327170739937493 -88.77812308746046 -25.327170739937493 -88.77812308746046 -0.25710840290773757 -4.097348741222652
11.3 -0.25352362238285997 -4.45587413409643 -26.178083950603725 -88.65585568583936 -26.178083950603725 -88.65585568583936 -0.2545854401979306 -4.459101829132426
11.4 -0.25126806043532557 -4.815708495113466 -27.114434994705398 -88.42152707417212 -27.114434994705398 -88.42152707417212 -0.2523394137499976 -4.819008951161517
11.5 -0.24928395681630394 -5.1737516472845435 -28.155901320149532 -88.03428163443978 -28.155901320149532 -88.03428163443978 -0.25036497352591025 -5.177125039765568
11.6 -0.2475662116088695 -5.530057104284251 -29.32967459767069 -87.43028668249268 -29.329674597670685 -87.43028668249268 -0.24865701833725415 -5.533503619594756
11.7 -0.24610996318785006 -5.8846770187010335 -30.6747358189622 -86.50413407698106 -30.6747358189622 -86.50413407698106 -0.24721068541457059 -5.888196854476171
11.8 -0.2449105783326941 -6.237662227326184 -32.24952445486776 -85.06896153172735 -32.24952445486776 -85.06896153173736 -0.24602134052270697 -6.241255592642148
11.9 -0.24396364285515254 -6.589062294775433 -34.14651298426316 -82.76091680817022 -34.14651298426316 -82.76091680817022 -0.24508456858934546 -6.592729410294352
12.0 -0.24326495271287868 -6.93892555549407 -36.5210514455483 -78.77423150000992 -36.5210514455583 -78.77423150001994 -0.24439616481945192 -6.942666653555636
12.1 -0.2428105055806615 -7.287299154221485 -39.64204307994935 -70.96992027924523 -39.64204307994935 -70.96992027924524 -0.24395212626765486 -7.291114478870476
12.2 -0.2425964928558152 -7.634229084966019 -43.815919901091156 -52.227893635491704 -43.815919901091156 -52.2278936355017 -0.24374864384243644 -7.638118891926961
12.3 -0.24261929207119215 -7.979760228547105 -46.80355966118981 -4.639058016732998 -46.80355966118981 -4.639058016716997 -0.24378209471946632 -7.983724785137261
12.4 -0.2428754596951862 -8.323936388768544 -43.381723049195315 39.64954281943827 -43.381723049195315 39.64954281945827 -0.24404903514017734 -8.327975973755477
12.5 -0.24336172429753294 -8.666800327260901 -39.358237057264624 56.55320036217884 -39.358237057264624 56.55320036218885 -0.24454619357609736 -8.67091523066981
12.6 -0.24407498005959413 -9.008393797065951 -36.3773446441846 63.77232828120194 -36.3773446441846 63.77232828120193 -0.2452704642377028 -9.012584319919059
12.7 -0.24501228061274977 -9.348757574989104 -34.107800837745344 67.52798007980333 -34.107800837745344 67.52798007980333 -0.24621890090979892 -9.353024028995272
12.8 -0.2461708331856371 -9.687931492781736 -32.295159859433454 69.73006159574861 -32.295159859433454 69.7300615957586 -0.24738871109631877 -9.692274199975584
12.9 -0.2475479930443712 -10.025954467191404 -30.79272674334561 71.1141108396373 -30.79272674334561 71.11411083963729 -0.24877725045812543 -10.03037375951725
13.0 -0.24914125821094008 -10.362864528931903 -29.512647332912223 72.01752627826639 -29.51264733291223 72.01752627826639 -0.25038201752662925 -10.367360747760674
13.1 -0.25094826444449486 -10.698698850605108 -28.399063542041176 72.6155561772127 -28.399063542041176 72.61555617722269 -0.25220064868197006 -10.703272346211564
13.2 -0.2529667804721454 -11.033493773617536 -27.4145269040117 73.0078992489948 -27.414526904011698 73.0078992489948 -0.2542309133792273 -11.038144904625057
13.3 -0.2551947034563846 -11.367284834122618 -26.532806828698373 73.25533137293388 -26.532806828698373 73.25533137293388 -0.2564707096109663 -11.372013966857867
13.4 -0.257630054686667 -11.700106788044726 -25.734857599275273 73.39696066759406 -25.734857599275273 73.39696066759406 -0.258918059594488 -11.704914295876419
13.5 -0.26027097548533384 -12.031993635233706 -25.006432837050134 73.45906983653187 -25.006432837050134 73.45906983653187 -0.2615711056709409 -12.036879897845854
13.6 -0.26311572331461575 -12.362978642690136 -24.33660753531866 73.45996275830517 -24.33660753531866 73.45996275830517 -0.26442810640798586 -12.367944045320044
13.7 -0.26616266807690153 -12.693094367021171 -23.716825267098915 73.41277111194131 -23.716825267098912 73.41277111194131 -0.2674874328926064 -12.698139299632464
13.8 -0.2694102885968547 -13.022372676066924 -23.140262640685833 73.32715577982465 -23.140262640685833 73.32715577982464 -0.27074756520800236 -13.027497532537973
13.9 -0.2728571692790342 -13.350844769817352 -22.601392698305727 73.21037892689354 -22.601392698305723 73.21037892689355 -0.2742070890829023 -13.356049946995489
14.0 -0.27650199692843164 -13.67854120047981 -22.095677201190963 73.06800227958658 -22.095677201190963 73.06800227958658 -0.2778646927062949 -13.683827097281489
