! Created with skrf 1.12.0 (http://scikit-rf.org).
# GHz S DB R 50.0 
!freq dBS11 angS11 dBS21 angS21 dBS12 angS12 dBS22 angS22
0.01 -27.288895744496045 3.4513640660001705 -0.3829356630272174 -0.18068492772623654 -0.3829356630272163 -0.18068492772553646 -27.288927626954557 3.4510564622588875
0.02 -27.23840452113617 6.875267132203586 -0.3831161157901409 -0.3613510538242809 -0.38311611579014193 -0.36135105382398097 -27.238439887548118 6.874657851336292
0.1 -25.867711574311535 30.77273257534599 -0.3888141940573969 -1.8038525298131842 -0.3888141940574 -1.8038525298131851 -25.867794694753417 30.76998316980085
0.2 -23.184043031846862 48.84001069352853 -0.40581085778227055 -3.591665891818645 -0.4058108577822716 -3.591665891818645 -23.1842155033916 48.834245466061496
0.3 -20.681777369282123 57.99577307579625 -0.43212092365305477 -5.3551759067973554 -0.43212092365305577 -5.3551759067973554 -20.68228337360641 57.98668076861967
0.4 -18.58923702967963 62.673384834314305 -0.4662243327770309 -7.093633125957882 -0.4662243327770309 -7.093633125957881 -18.59035082378609 62.662229454331836
0.5 -16.850052144480927 65.030510585079 -0.5072466640994199 -8.80918260412821 -0.5072466640994189 -8.80918260412821 -16.85185780943202 65.01957068103495
0.6 -15.385495383653303 66.0898011849778 -0.5547829962696591 -10.503713699988738 -0.554782996269658 -10.503713699988737 -15.387851053304937 66.08108068789466
0.7 -14.133028563896612 66.37337578400468 -0.6086380481136354 -12.178049570714093 -0.6086380481136334 -12.178049570714089 -14.135682637856696 66.36779418591033
0.8 -13.046792543397203 66.16855963212703 -0.6686767292282256 -13.832147320053336 -0.6686767292281246 -13.832147320043335 -13.049516822562948 66.16602335700217
0.9 -12.0933521148443 65.64388277311247 -0.7347626962120299 -15.465438248091564 -0.7347626962120288 -15.465438248091566 -12.0960006825044 65.6437873852841
1.0 -11.247998314543201 64.9035905896954 -0.806737464871229 -17.077089673401968 -0.8067374648711274 -17.077089673401968 -11.250501904670392 64.90524189195729
1.1 -10.492126810835137 64.01509974884192 -0.8844169024301944 -18.66618283711831 -0.8844169024299926 -18.666182837118317 -10.494465592032384 64.017911203929
1.2 -9.811455596428102 63.02368414031797 -0.9675952570056718 -20.231823921107363 -0.9675952570055706 -20.231823921107356 -9.813635286113803 63.0272218180211
1.3 -9.194815336416294 61.96073806395928 -1.056051588517502 -21.77320543063775 -1.056051588517502 -21.77320543063775 -9.196852343603092 61.96470168308693
1.4 -8.633319430556766 60.848630819445226 -1.1495560366222235 -23.289634764875057 -1.1495560366212263 -23.28963476487506 -8.63523313392408 60.85281996081196
1.5 -8.119785877182263 59.70366935087598 -1.2478749827662317 -24.78054337895613 -1.2478749827662352 -24.780543378956125 -8.121595128997987 59.707953379134636
1.6 -7.648327733565271 58.53796919270832 -1.3507749794282478 -26.24548548760833 -1.3507749794282478 -26.245485487608327 -7.650049521701958 58.54226504410882
1.7 -7.214058005612825 57.3606731056508 -1.4580256252009116 -27.684131640355968 -1.4580256251999135 -27.684131640355968 -7.215707102052896 57.364930086864206
1.8 -6.812873408775854 56.1787672922987 -1.5694016279046543 -29.09626011375739 -1.5694016279046543 -29.09626011375739 -6.814462416663526 56.182956957301904
1.9 -6.441293375066501 54.997641970608385 -1.6846842716553534 -30.481747654031867 -1.6846842716543535 -30.481747654031878 -6.442832906332196 55.001751357854715
2.0 -6.096338386623133 53.82148514432201 -1.8036624552730123 -31.84056031679096 -1.8036624552730123 -31.84056031680096 -6.09783726134958 53.825512142260266
2.1 -5.775436745068819 52.65356486554458 -1.9261334236072336 -33.172744731222735 -1.92613342360723 -33.172744731222735 -5.776902176808098 52.657514905080205
2.2 -5.476352210115921 51.496435306211865 -2.0519032768595635 -34.478419902972405 -2.051903276859561 -34.4784199029824 -5.477789971536998 51.50031888932663
2.3 -5.197127169243925 50.352089735659625 -2.1807873163246554 -35.75776956939796 -2.180787316324654 -35.75776956939796 -5.198541742812425 50.3559205121511
2.4 -4.936037516334231 49.22207583799774 -2.312610266187449 -37.01103507903505 -2.312610266187449 -37.01103507904504 -4.9374322363425565 49.2258690673707
2.5 -4.691556463722329 48.10758388361817 -2.4472063984313763 -38.238508755762666 -2.4472063984303754 -38.238508755762666 -4.692933654516474 48.11135519241482
2.6 -4.4623252454486275 47.00951504325788 -2.5844195795131593 -39.44052770971161 -2.584419579513158 -39.44052770972163 -4.463686358382945 47.01327942871508
2.7 -4.247129190466673 45.92853497627258 -2.7241032522537996 -40.617468064279606 -2.7241032522538013 -40.617468064279606 -4.248474940051127 45.9323060278494
2.8 -4.04487801977738 44.86511635688376 -2.8661203630276177 -41.76973957587409 -2.8661203630276177 -41.76973957587409 -4.0462085179721505 44.86890567651895
2.9 -3.8545894951198454 43.81957298782027 -3.010343242445026 -42.897780629852825 -3.010343242445028 -42.89778062985281 -3.8559043817789234 43.82338979256717
3.0 -3.6753757488140426 42.79208743995107 -3.156653446498109 -44.00205360004561 -3.156653446498109 -44.00205360004561 -3.6766743158728206 42.7959383302119
3.1 -3.506431775019632 41.782733651960264 -3.304941564474099 -45.08304056212832 -3.3049415644741 -45.083040562138315 -3.5077130819673785 41.78662252684743
3.2 -3.3470256762093253 40.7914955622779 -3.455106999488139 -46.14123935177195 -3.455106999488139 -46.14123935177195 -3.3482886546850414 40.795423661830405
3.3 -3.196490345013964 39.81828258323855 -3.6070577271122 -47.177159958047476 -3.607057727113199 -47.177159958047476 -3.1977338907829713 39.82224863580571
3.4 -3.0542163278128323 38.86294253553225 -3.7607100372989573 -48.191321241759404 -3.7607100372989573 -48.191321241759404 -3.055439378958936 38.86694298794933
3.5 -2.9196456675807845 37.925272519700194 -3.915988264409151 -49.18424796652145 -3.915988264410151 -49.18424796652145 -2.9208472683331124 37.929301828129915
3.6 -2.7922665633432313 37.00502809583424 -4.0728245098431755 -50.156468128874295 -4.072824509844172 -50.15646812887431 -2.793445913535516 37.00907905622491
3.7 -2.671608714751566 36.10193106394851 -4.231158361309456 -51.10851057249015 -4.231158361310458 -51.10851057249015 -2.6727652054248994 36.10599516273613
3.8 -2.55723924486753 35.21567607744192 -4.3909366124138725 -52.040902869832145 -4.390936612414873 -52.040902869832145 -2.5583724809687407 35.21974384551759
3.9 -2.4487591137029723 34.3459362765973 -4.552112985773159 -52.954169454078944 -4.552112985773159 -52.95416945408893 -2.449868925173762 34.34999763217537
4.0 -2.345799950590402 33.492368093805396 -4.714647862460351 -53.848829983486056 -4.714647862460351 -53.848829983486056 -2.346886393359848 33.49641266276053
4.1 -2.2480212458681375 32.654615354848815 -4.878508020185483 -54.7253979199573 -4.878508020186484 -54.72539791995732 -2.2490845944175213 32.65863275988204
4.2 -2.155107852387392 31.83231277915948 -5.043666382217893 -55.584379304170646 -5.043666382217895 -55.58437930417065 -2.1561485855671285 31.836292892025533
4.3 -2.0667677554208406 31.025088964744754 -5.210101778727466 -56.426271709414735 -5.210101778728466 -56.426271709414735 -2.067786537204763 31.02902211816333
4.4 -1.9827300761779827 30.2325689299589 -5.377798721927527 -57.25156335755414 -5.3777987219275305 -57.25156335755414 -1.9837277328774636 30.236446088153762
4.5 -1.902743279470978 29.454376273149656 -5.5467471960948735 -58.06073238072399 -5.5467471960948735 -58.06073238072399 -1.903720774853813 29.458189161699813
4.6 -1.826573560544613 28.690135002082993 -5.716942463376348 -58.854246213627846 -5.716942463376351 -58.85424621362783 -1.8275319700512274 28.693876199250013
4.7 -1.754003389705579 27.9394710776321 -5.888384886051885 -59.63256110226592 -5.888384886051885 -59.63256110226592 -1.7549438748215584 27.943134070438006
4.8 -1.6848301964429504 27.202013710010455 -6.061079765810744 -60.39612171563606 -6.061079765811744 -60.39612171563606 -1.6857539800435761 27.2055929189401
4.9 -1.6188651772476272 26.477396440421355 -6.23503720046771 -61.145360848263536 -6.235037200467712 -61.145360848263536 -1.619773520560016 26.48088721726313
5.0 -1.5559322134789753 25.76525803681979 -6.410271958468141 -61.88069920219213 -6.410271958468142 -61.88069920219213 -1.556826395110777 25.768656640018037
5.1 -1.4958668873928673 25.065243228424862 -6.586803371479228 -62.60254523804495 -6.586803371480228 -62.60254523804495 -1.496748184724742 25.068546780487104
5.2 -1.438515585970034 24.377003300743738 -6.764655245327065 -63.311295085739296 -6.764655245327065 -63.311295085739296 -1.4393852590825813 24.380209731895118
5.3 -1.38373468348285 23.700196569649492 -6.94385578953775 -64.00733250605776 -6.943855789538751 -64.00733250604776 -1.384593961638729 23.70330455165709
5.4 -1.331389794813621 23.034488751118197 -7.124437565763476 -64.69102889519463 -7.1244375657634755 -64.69102889519463 -1.3322398654564913 23.03749762469676
5.5 -1.2813550924954653 22.379553240831115 -7.306437455386594 -65.36274332517453 -7.306437455386593 -65.36274332517453 -1.282197092639178 22.382462939702087
5.6 -1.2335126812642696 21.735071316180065 -7.489896646679181 -66.0228226133285 -7.489896646679181 -66.02282261332849 -1.2343476910927902 21.737882290244997
5.7 -1.1877520245913233 21.100732271574415 -7.674860641927603 -66.67160141497106 -7.674860641927603 -66.67160141497106 -1.188581063072735 21.103445411364092
5.8 -1.1439694183068383 20.476233496720134 -7.861379285053265 -67.3094023336908 -7.861379285053262 -67.3094023336908 -1.1447934405737603 20.478850060710055
5.9 -1.1020675069204393 19.86128050610097 -8.049506810339667 -67.93653604415496 -8.049506810339667 -67.93653604414497 -1.102887403201211 19.86380205212394
6.0 -1.061954838747584 19.255586927093283 -8.239301913018561 -68.55330142278919 -8.239301913018563 -68.55330142278919 -1.0627714345923613 19.2580152488098
6.1 -1.023545456318517 18.65887445301657 -8.430827842591905 -69.15998568190113 -8.430827842591905 -69.15998568190112 -1.024359513915642 18.66121152194318
6.2 -0.9867585189453855 18.07087276673121 -8.624152519940209 -69.75686450318769 -8.624152519940209 -69.75686450318769 -0.9875707392922989 18.073120680207452
6.3 -0.9515179545979136 17.49131943967665 -8.819348679452583 -70.34420216668381 -8.819348679452583 -70.34420216668381 -0.9523289803560314 17.493480374850726
6.4 -0.9177521385586949 16.919959810522332 -9.016494037626773 -70.9222516715015 -9.016494037626774 -70.9222516715015 -0.9185625573983138 16.922035984285696
6.5 -0.8853935965441917 16.35654684721424 -9.215671489812307 -71.49125484459641 -9.215671489813309 -71.49125484459641 -0.8862039448359683 16.35854048189536
6.6 -0.8543787302183574 15.800840995500012 -9.416969337070714 -72.05144243408056 -9.416969337071714 -72.05144243407052 -0.8551894969349416 15.8027542899876
6.7 -0.8246475632151673 15.252610016845844 -9.620481545406761 -72.60303418325788 -9.620481545406765 -72.60303418325788 -0.8254591939306268 15.254445122811399
6.8 -0.7961435059636647 14.711628818047743 -9.826308039998485 -73.14623888187118 -9.826308039999482 -73.14623888187118 -0.7969564068548295 14.713387820807899
6.9 -0.768813137767008 14.177679274650462 -10.034555037464706 -73.68125439031698 -10.0345550374647 -73.68125439030696 -0.7696276795427314 14.179364178229031
7.0 -0.7426060047268972 13.650550049996832 -10.24533541960575 -74.20826763287637 -10.24533541960575 -74.20826763287637 -0.7434225264228905 13.652162765906802
7.1 -0.7174744322340041 13.130036411380287 -10.458769152748783 -74.72745455532967 -10.458769152748786 -74.72745455532966 -0.7182932448278302 13.13157875070589
7.2 -0.6933733508581847 12.615940044623477 -10.674983757167439 -75.2389800417516 -10.674983757167439 -75.2389800417516 -0.6941947406697906 12.617413712992477
7.3 -0.6702601345736113 12.108068868275431 -10.89411483207 -75.74299778507566 -10.894114832069997 -75.74299778507566 -0.6710843664294379 12.109475463161733
7.4 -0.64809445034976 11.60623684825989 -11.116306642235687 -76.23965010489462 -11.116306642235688 -76.23965010488462 -0.6489217704959307 11.607577858446692
7.5 -0.6268381182224456 11.110263813867217 -11.341712773359284 -76.72906770513542 -11.341712773359284 -76.72906770513542 -0.6276687569804852 11.11154062048082
7.6 -0.6064549810324081 10.619975275682147 -11.570496864524419 -77.21136936336627 -11.570496864524415 -77.21136936335628 -0.6072891551988492 10.62118915468653
7.7 -0.5869107830931296 10.135202246109646 -11.802833427055795 -77.68666154152395 -11.802833427055797 -77.68666154152395 -0.5877486980867931 10.136354371762009
7.8 -0.5681730571063467 9.655781062818821 -12.038908761100654 -78.15503790699921 -12.03890876110065 -78.15503790698921 -0.569014908873203 9.65687251202018
7.9 -0.5502110187057142 9.181553215589917 -12.278921982589425 -78.61657874995889 -12.278921982589425 -78.61657874995889 -0.5510569953926632 9.182584972756006
8.0 -0.5329954680555617 8.712365176808285 -12.52308617579615 -79.0713502812628 -12.523086175796152 -79.0713502812628 -0.5338457514673551 8.713338139153729
8.1 -0.516498697983089 8.248068235846954 -12.771629688908376 -79.51940379133347 -12.771629688908376 -79.51940379133349 -0.5173534648393739 8.248983218883989
8.2 -0.500694408163124 7.7885183375245255 -13.024797593457055 -79.96077464725794 -13.024797593457055 -79.96077464725794 -0.5015538311686601 7.789376080635254
8.3 -0.48555762491173043 7.333575924761852 -13.282853331656245 -80.3954811002094 -13.282853331656248 -80.3954811002094 -0.4864218736605721 7.3343770967393285
8.4 -0.4710646261843525 6.883105785535042 -13.546080580712916 -80.82352286976788 -13.546080580712918 -80.8235228697579 -0.4719338679114735 6.883850989986055
8.5 -0.45719287140314424 6.436976904167025 -13.81478536788685 -81.24487946432846 -13.814785367886852 -81.24487946432846 -0.4580672716010364 6.437666684722857
8.6 -0.4439209357694768 5.995062317003014 -14.089298477120686 -81.65950818795585 -14.089298477120689 -81.65950818795585 -0.44480065868560464 5.995697162256186
8.7 -0.4312284487433727 5.557238972451028 -14.369978195760297 -82.06734177237416 -14.369978195760297 -82.06734177237416 -0.4321136577729976 5.557819320591066
8.8 -0.4190960363988002 5.123387595378539 -14.657213459695322 -82.46828555889118 -14.65721345969532 -82.46828555889118 -0.4199868943867895 5.123913838499918
8.9 -0.40750526738251663 4.693392555821355 -14.951427467530173 -82.86221413640546 -14.951427467530172 -82.86221413640546 -0.4084019368481772 4.69386504387455
9.0 -0.3964386022286767 4.267141741958616 -15.25308184923528 -83.24896731869617 -15.253081849235281 -83.24896731868616 -0.39734124552433797 4.267560786339382
9.1 -0.38587934579794614 3.8445264372758317 -15.562681493768796 -83.62834531376413 -15.562681493768793 -83.62834531376413 -0.38678812521318723 3.8448923140557083
9.2 -0.3758116026278602 3.425441201852819 -15.880780163778663 -84.0001028994238 -15.880780163778665 -84.0001028994238 -0.3767266804487993 3.4257541546468846
9.3 -0.3662202349986866 3.0097837576802893 -16.207987055705154 -84.36394236779473 -16.207987055705154 -84.36394236779473 -0.3671417735306549 3.010044000173125
9.4 -0.357090823529948 2.597454877934806 -16.544974501783766 -84.719504934413 -16.544974501783766 -84.719504934413 -0.35801898509275537 2.5976625960627353
9.5 -0.34840963014151693 2.188358280086815 -16.89248706038862 -85.06636021785043 -16.89248706038862 -85.06636021785043 -0.34934457704291294 2.1885136339093143
9.6 -0.34016356322048924 1.782400522772347 -17.251352304686275 -85.4039932752626 -17.25135230468628 -85.4039932752626 -0.34110545771437817 1.7825036480406695
9.7 -0.3323401448491175 1.379490906308995 -17.622493704159982 -85.73178851608363 -17.622493704159986 -85.73178851607362 -0.3332891490838719 1.3795419157559354
9.8 -0.32492747996050003 0.9795413767596993 -18.006946104264372 -86.04900959154828 -18.006946104264372 -86.04900959154828 -0.3258837559219544 0.9795403611250403
9.9 -0.3179142272952861 0.5824664334326487 -18.405874457460584 -86.35477404713055 -18.405874457460584 -86.35477404712054 -0.3188779367477719 0.5824134622610568
10.0 -0.3112895720438159 0.18818303972556957 -18.82059665891184 -86.64802108724783 -18.82059665891184 -86.64802108724783 -0.3122608764731399 0.18807816193824592
10.1 -0.30504320006665164 -0.20338946280457063 -19.25261161230942 -86.92747017994117 -19.25261161230942 -86.92747017993116 -0.3060222606271073 -0.2035462185290316
10.2 -0.2991652735921822 -0.5923294372411291 -19.703634028109057 -87.1915673290203 -19.703634028109057 -87.1915673290103 -0.30015225106000676 -0.5925380622629894
10.3 -0.29364640829847644 -0.9787130310831568 -20.17563798328773 -87.43841452196384 -20.17563798328773 -87.43841452196384 -0.2946414630332013 -0.9789735367533626
10.4 -0.2884776516924648 -1.3626142530961092 -20.67091202099089 -87.6656758900236 -20.67091202100089 -87.66567589001359 -0.2894809436082901 -1.3629266708464214
10.5 -0.28365046270568495 -1.7441050473404973 -21.19212964948001 -87.87045111770351 -21.19212964948001 -87.87045111770352 -0.2846621512530697 -1.7444694288923965
10.6 -0.2791566924313967 -2.1232553644722483 -21.742440688250547 -88.04910197939208 -21.742440688250547 -88.04910197939208 -0.28017693659024634 -2.1236717821517757
10.7 -0.2749885659325809 -2.5001332304114228 -22.32559128698029 -88.19701047508856 -22.32559128698029 -88.19701047508856 -0.27601752421650805 -2.5006017775508473
10.8 -0.27113866505549433 -2.874804812479113 -22.94608407869799 -88.30823496546282 -22.94608407869799 -88.30823496546282 -0.2721764955291695 -2.8753256038937685
10.9 -0.2675999121889026 -3.247334483084193 -23.609395617532385 -88.37501046257776 -23.609395617532385 -88.37501046256774 -0.2686467724961935 -3.247907655608324
11.0 -0.2643655549092132 -3.6177848810490927 -24.322277384761534 -88.3870041876152 -24.322277384761534 -88.3870041876152 -0.2654216023146541 -3.618410594126839
11.1 -0.26142915146167356 -3.986216970674386 -25.093181735402453 -88.33017461424434 -25.093181735402457 -88.33017461424434 -0.26249454290324387 -3.9868954069820863
11.2 -0.25878455702619935 -4.3526900986060095 -25.932879890641107 -88.18496460703258 -25.932879890641107 -88.18496460703258 -0.2598594491793154 -4.3534214647099345
11.3 -0.2564259107206666 -4.717262048599929 -26.8553845556926 -87.92332866211903 -26.8553845556926 -87.92332866210906 -0.2575104600741102 -4.718046575629655
11.4 -0.2543476233006233 -5.079989094259096 -27.879373331701732 -87.50361642778013 -27.879373331701736 -87.50361642778013 -0.25544198624313963 -5.080827038596655
11.5 -0.25254436551299114 -5.440926049815524 -29.03046949025381 -86.8612779318672 -29.03046949025381 -86.86127793185719 -0.25364869842970605 -5.441817693787525
11.6 -0.2510110570661433 -5.8001263190403725 -30.34505850990565 -85.89082946450624 -30.34505850990565 -85.89082946450624 -0.25212551644555536 -5.801071971606253
11.7 -0.24974285618147946 -6.157641942333877 -31.876990149996914 -84.40787911477938 -31.876990149996914 -84.40787911477938 -0.2508675987311554 -6.158641939777508
11.8 -0.24873514969276092 -6.513523642088029 -33.70992419965164 -82.06040161390796 -33.70992419965164 -82.06040161390796 -0.2498703324642706 -6.514578348686824
11.9 -0.24798354366190434 -6.867820866372889 -35.98055399030001 -78.09155908091746 -35.98055399030001 -78.09155908089747 -0.2491293241834584 -6.86893067505465
12.0 -0.2474838544825974 -7.220581831006398 -38.91515670077029 -70.58654130452379 -38.91515670077029 -70.5865413045038 -0.2486403909000223 -7.221747163993087
12.1 -0.24723210044410576 -7.571853560082654 -42.75886600834106 -53.65673218218098 -42.75886600834106 -53.65673218214099 -0.24839955166838867 -7.573074869505315
12.2 -0.24722449372889327 -7.9216819250105015 -45.95986353175356 -12.301216831590322 -45.95986353175356 -12.301216831550317 -0.24840301959080688 -7.922959693500525
12.3 -0.24745743282235363 -8.270111682118378 -43.492517816094335 33.422960564429374 -43.492517816084344 33.42296056442938 -0.2486471942327359 -8.271446423372382
12.4 -0.24792749530808428 -8.617186508879382 -39.56865979351787 53.14536083183019 -39.56865979351787 53.14536083183019 -0.24912865442427828 -8.618578768197864
12.5 -0.24863143103240065 -8.962949038814392 -36.54134531826958 61.61396883992238 -36.54134531826958 61.61396883992238 -0.2498441514290476 -8.964399393606476
12.6 -0.24956615561338735 -9.307440895119298 -34.224991181458876 65.99040223684082 -34.224991181448885 65.99040223684082 -0.2507906024588756 -9.308949955377745
12.7 -0.2507287442796017 -9.650702723067162 -32.376412814582466 68.54809105188008 -32.376412814582466 68.54809105188008 -0.2519650845162506 -9.652271131808961
12.8 -0.2521164260187852 -9.992774221231365 -30.846878639987597 70.15775369215879 -30.846878639977596 70.1577536921588 -0.25336482854675124 -9.994402654908102
12.9 -0.2537265780205158 -10.333694171575617 -29.545998992095722 71.21502277594308 -29.545998992095722 71.21502277593306 -0.2549872138856081 -10.335383340448915
13.0 -0.25555672039754024 -10.673500468434785 -28.416087401956098 71.92362514202895 -28.41608740195609 71.92362514202895 -0.2568297629815682 -10.675251116916106
13.1 -0.2576045111709901 -11.012230146489557 -27.418460567829534 72.39862487718406 -27.418460567829534 72.39862487718406 -0.2588901363855346 -11.014043053464595
13.2 -0.2598677415055672 -11.349919407694836 -26.52605069956239 72.70974573487847 -26.52605069956239 72.70974573486848 -0.26116612798781297 -11.35179538676883
13.3 -0.26234433118257566 -11.686603647227855 -25.71923283809051 72.90163091027483 -25.71923283809051 72.90163091027483 -0.26365566049312317 -11.688543546976103
13.4 -0.26503232429733375 -12.022317478543004 -24.983350258463375 73.00415804382767 -24.983350258463375 73.00415804382767 -0.26635678112039646 -12.024322182735874
13.5 -0.26792988517025784 -12.357094757477292 -24.307180485308344 73.038061251022 -24.307180485308344 73.038061251022 -0.26926765751493004 -12.359165185240046
13.6 -0.27103529446161706 -12.690968605546438 -23.681946820074955 73.01817093489133 -23.681946820074955 73.01817093489133 -0.27238657386500986 -12.693105711484183
13.7 -0.27434694547724103 -13.0239714323416 -23.100659599729376 72.9553694500848 -23.10065959972937 72.9553694500848 -0.2757119272083858 -13.026176206669689
13.8 -0.2778633406594256 -13.356134957186645 -22.557664173938857 72.85781880808396 -22.55766417393886 72.85781880808396 -0.2792422239241924 -13.358408425806905
13.9 -0.2815830882493845 -13.687490229956053 -22.04832271073637 72.73175769431849 -22.04832271073637 72.73175769431849 -0.2829760763963172 -13.68983345449908
14.0 -0.28550489911795124 -14.018067651223282 -21.568785128595223 72.58203413453181 -21.568785128595227 72.58203413453181 -0.2869121998444126 -14.020481729047287
