! Created with skrf 1.12.0 (http://scikit-rf.org).
# GHz S DB R 50.0 
!freq dBS11 angS11 dBS21 angS21 dBS12 angS12 dBS22 angS22
0.01 -29.421173046550003 4.870006296937377 -0.2975783799972631 -0.19470260927058508 -0.2975783799973629 -0.19470260926458507 -29.421165921733884 4.870079030381702
0.02 -29.297838849741087 9.462651562648313 -0.29882907646776025 -0.3833441205590941 -0.29882907646786105 -0.3833441205559942 -29.29781493818097 9.462848025146709
0.1 -27.087899090736247 37.71326038091959 -0.30948548402757864 -1.8462890527982454 -0.3094854840276786 -1.8462890527972462 -27.087618605686817 37.71110740526227
0.2 -23.69549529852541 55.14010848706743 -0.3301167816684941 -3.6438496431809995 -0.3301167816685973 -3.64384964318 -23.695432182510316 55.1341215131353
0.3 -20.905144000072205 62.79868105412667 -0.35976355372986263 -5.41193577290635 -0.35976355372996616 -5.41193577290635 -20.905550893671187 62.79030452290203
0.4 -18.69751290599185 66.32833677124324 -0.39718832398023574 -7.148314596054409 -0.39718832398023574 -7.14831459605341 -18.69844834744833 66.31942253325049
0.5 -16.912167234106295 67.8879730661426 -0.44121953096132654 -8.854884784005401 -0.441219530961428 -8.854884784005401 -16.913537375650883 67.87988002333037
0.6 -15.430785746186434 68.39708839189196 -0.49115628056929916 -10.534692299059389 -0.4911562805694002 -10.534692299059389 -15.432456889898805 68.39046152538455
0.7 -14.174365716406868 68.29846652234725 -0.5466241756167022 -12.190294055814695 -0.5466241756167032 -12.190294055814695 -14.176221479467968 68.29349167927762
0.8 -13.08958041975145 67.82624192239238 -0.6074215479326123 -13.823413599514938 -0.6074215479327115 -13.823413599514934 -13.09153209277837 67.82287712901591
0.9 -12.139427982328048 67.11343151605736 -0.6734261238255117 -15.435035634853223 -0.6734261238255117 -15.435035634853227 -12.141410767756282 67.11152877607046
1.0 -11.297482269080612 66.24017773793689 -0.7445452296001688 -17.025587668960192 -0.7445452296002675 -17.025587668960195 -11.299450432567683 66.2395425647952
1.1 -10.544349988760285 65.25727440372758 -0.8206904467485889 -18.595107390270694 -0.8206904467485878 -18.59510739027069 -10.54627293418168 65.25769926849284
1.2 -9.865438910309523 64.19838624736548 -0.9017654254382536 -20.143376031462882 -0.9017654254382547 -20.14337603146288 -9.867297807627653 64.1996713867383
1.3 -9.24951674913673 63.086725142866555 -0.9876608284951994 -21.67001930504765 -0.9876608284951983 -21.67001930504765 -9.251301503803198 63.088690664349166
1.4 -8.687757914770257 61.93885847610058 -1.078253147597947 -23.174581760495695 -1.078253147597947 -23.174581760495695 -8.689464548044365 61.941349745988774
1.5 -8.173098409190104 60.76696704218374 -1.173405571202581 -24.656580432666363 -1.1734055712025788 -24.65658043266636 -8.174726954677528 60.76985535135851
1.6 -7.699789772901307 59.58023217355185 -1.2729698673329453 -26.1155427394364 -1.2729698673329453 -26.115542739436403 -7.701342713302361 59.5834126123695
1.7 -7.263084364591688 58.385716782716834 -1.3767886907430977 -27.551032565028898 -1.3767886907430964 -27.551032565028894 -7.264565550628234 58.38910486270822
1.8 -6.859009059786947 57.188942814905744 -1.4846979834697336 -28.962667554636877 -1.4846979834697347 -28.962667554636884 -6.860423010384196 57.19247085537977
1.9 -6.484199624515259 55.994281108511814 -1.596529289046629 -30.350129902102992 -1.5965292890466278 -30.350129902102985 -6.485551100955764 55.997894943204074
2.0 -6.1357774834897185 54.805222063664225 -1.7121118880783124 -31.713172335811826 -1.7121118880783135 -31.713172335811826 -6.137071245166089 54.80887829121607
2.1 -5.811256616946415 53.62456856164008 -1.8312747129639775 -33.051620574537836 -1.8312747129639761 -33.051620574537836 -5.812497289057276 53.628232365340196
2.2 -5.508472212057254 52.45457689445761 -1.9538480279063228 -34.36537320496099 -1.9538480279063228 -34.36537320496098 -5.509664217695041 52.45822035910889
2.3 -5.2255252569590205 51.29706210446783 -2.0796648762316168 -35.654399697951355 -2.0796648762316168 -35.65439969795135 -5.226672783922059 51.30066292592123
2.4 -4.960738980578813 50.15347841244421 -2.208562305771543 -36.918737108073316 -2.208562305771543 -36.91873710807332 -4.961845965930093 50.15701889861168
2.5 -4.712624207992049 49.02498183559861 -2.340382387745843 -38.15848587300387 -2.340382387745843 -38.15848587300387 -4.713694331614496 49.02844811589377
2.6 -4.479851506738928 47.91247981206626 -2.47497304684802 -39.3738050329067 -2.4749730468480218 -39.3738050329067 -4.4808881898736965 47.91586119443175
2.7 -4.261228563947762 46.816671160225454 -2.6121887211423385 -40.56490711632014 -2.612188721142337 -40.56490711632014 -4.262234971214366 46.819959594278906
2.8 -4.055681635096086 45.738078713789996 -2.75189087041366 -41.732052881813495 -2.7518908704136615 -41.73205288181349 -4.056660679509792 45.741268333606186
2.9 -3.86224019355683 44.67707630701342 -2.893948351082722 -42.87554605960167 -2.893948351082723 -42.87554605960167 -3.8631945443812272 44.68016303748799
3.0 -3.6800241200401747 43.63391132758015 -3.0382376749777467 -43.995728201372614 -3.0382376749777467 -43.995728201372614 -3.680956213253763 43.636892544654216
3.1 -3.5082329255075577 42.60872373707511 -3.1846431681354797 -45.09297371792755 -3.1846431681354788 -45.09297371792754 -3.509144976518821 42.611597975544996
3.2 -3.346136616046808 41.601562234221795 -3.333057044605807 -46.167685161309706 -3.333057044605807 -46.167685161309706 -3.3470306341392635 41.60432893875644
3.3 -3.193067894409941 40.61239807601346 -3.483379408963292 -47.220288789376006 -3.483379408963292 -47.220288789376006 -3.1939456983526244 40.61505739143543
3.4 -3.0484154582487513 39.64113695558504 -3.635518199896634 -48.25123043657743 -3.635518199896635 -48.25123043657744 -3.04927869247861 39.643689552711265
3.5 -2.9116182049631734 38.68762925032472 -3.7893890859797703 -49.260971702720155 -3.7893890859797703 -49.26097170272015 -2.912468355824205 38.690076183471106
3.6 -2.7821601914746656 37.75167889032206 -3.944915323471318 -50.24998646276123 -3.94491532347132 -50.24998646276123 -2.782998603053581 37.75402148259176
3.7 -2.6595662269842304 36.83305104947774 -4.102027584842641 -51.21875769382061 -4.102027584842641 -51.21875769382061 -2.6603941162159335 36.83529080195768
3.8 -2.543398000063328 35.93147882502566 -4.260663765607165 -52.16777461026672 -4.260663765607166 -52.16777461026671 -2.5442164708488324 35.933617346280315
3.9 -2.433250659626324 35.04666904299236 -4.42076877603802 -53.097530094166494 -4.4207687760380185 -53.097530094166494 -2.434060715829989 35.04870799533514
4.0 -2.3287497838616225 34.17830730490367 -4.582294323443682 -54.00851840570345 -4.582294323443682 -54.00851840570345 -2.3295523410941996 34.1802483644104
4.1 -2.229548682641353 33.326062373309966 -4.745198689860935 -54.90123315649801 -4.745198689860933 -54.901233156498 -2.2303445788398815 33.327907200909465
4.2 -2.1353259881781326 32.48958997959304 -4.909446509260061 -55.776165527916596 -4.909446509260059 -55.7761655279166 -2.136115992998927 32.49134020084177
4.3 -2.0457834961193675 31.66853612564078 -5.075008547758565 -56.63380271576635 -5.075008547758565 -56.633802715756346 -2.0465683192196376 31.67019331734975
4.4 -1.960644225269914 30.862539941581225 -5.241861489733338 -57.47462658323411 -5.241861489733336 -57.47462658323411 -1.9614245235552838 30.864105623583775
4.5 -1.879650669044903 30.071236153581143 -5.409987732268197 -58.29911250394007 -5.409987732268197 -58.29911250394009 -1.8804270529854943 30.07271178444137
4.6 -1.802563215794556 29.294257208820504 -5.579375189927061 -59.10772837772855 -5.579375189927063 -59.10772837772856 -1.8033362548920802 29.29564418441239
4.7 -1.7291587184182247 28.53123509913832 -5.750017111504305 -59.90093380273128 -5.750017111504308 -59.90093380273128 -1.7299289459300708 28.532534753265697
4.8 -1.6592291964669545 27.781802919620315 -5.921911910104312 -60.67917938787226 -5.921911910104312 -60.67917938787226 -1.6599971134730729 27.783016526118697
4.9 -1.592580656201649 27.0455961943935 -6.095063007645807 -61.442906191217034 -6.095063007645807 -61.44290619121704 -1.5933467350879393 27.04672497015453
5.0 -1.5290320160084847 26.322253997646502 -6.269478694705322 -62.192545270323954 -6.26947869470532 -62.192545270323954 -1.529796703449775 26.323299106245827
5.1 -1.4684141261710935 25.611419895168307 -6.445172006440111 -62.928517332120585 -6.445172006440111 -62.928517332120585 -1.4691778456702131 25.61238245083828
5.2 -1.4105688733940072 24.912742728341527 -6.622160615219651 -63.6512324703239 -6.622160615219651 -63.6512324703239 -1.4113320274347687 24.913623799919428
5.3 -1.3553483616056952 24.225877260168744 -6.800466740510026 -64.3610899799096 -6.800466740510027 -64.3610899799096 -1.3561113334727948 24.226677875112088
5.4 -1.302614161591877 23.55048470075374 -6.980117076495627 -65.05847823871258 -6.9801170764956275 -65.05847823871258 -1.3033773169025533 23.55120584882334
5.5 -1.252236622860462 22.886233127410847 -7.161142737899357 -65.74377464716798 -7.161142737899354 -65.74377464716798 -1.2530003108345293 22.886875764133023
5.6 -1.2040942418610299 22.232797813138255 -7.343579224456206 -66.41734561824963 -7.343579224456206 -66.41734561824963 -1.2048587963809945 22.233362862786908
5.7 -1.1580730813568412 21.58986147527192 -7.5274664045190605 -67.07954661010157 -7.52746640451906 -67.07954661010157 -1.1588388218355765 21.590349833411945
5.8 -1.1140662362598195 20.957114455059116 -7.71284851831208 -67.7307221948256 -7.712848518312078 -67.7307221948256 -1.1148334683633805 20.957526990541457
5.9 -1.0719733417820663 20.334254837420406 -7.899774201430139 -68.37120615733738 -7.899774201430139 -68.37120615733737 -1.0727423580099917 20.334592393800357
6.0 -1.0317001201239862 19.72098851928129 -8.088296529237356 -69.00132161905161 -8.088296529237356 -69.00132161905161 -1.0324712003075225 19.721251915660364
6.1 -0.9931579623546241 19.117029233644065 -8.278473082959653 -69.62138118142714 -8.278473082959655 -69.62138118142714 -0.9939313740720562 19.11721926490645
6.2 -0.956263542422473 18.52209853595192 -8.470366038356051 -70.2316870851005 -8.470366038356053 -70.2316870851005 -0.9570395413734739 18.522215972386498
6.3 -0.9209384605659201 17.935925758287713 -8.664042278059405 -70.83253138065723 -8.664042278059403 -70.83253138065723 -0.9217172909224216 17.93597134469591
6.4 -0.8871089136320764 17.35824793644944 -8.859573528785823 -71.42419610755901 -8.859573528785823 -71.42419610755901 -0.8878908083900667 17.358222390790093
6.5 -0.8547053900574839 16.788809714265852 -9.057036524882232 -72.00695347800482 -9.057036524882232 -72.00695347800482 -0.8554905714073242 16.78871372585735
6.6 -0.8236623874689946 16.227363228864604 -9.256513199872126 -72.58106606298315 -9.256513199872128 -72.58106606298315 -0.8244510671996015 16.227197456345152
6.7 -0.7939181510503813 15.67366798037647 -9.458090907951547 -73.14678697765396 -9.458090907951547 -73.14678697764397 -0.794710530997701 15.673433049482925
6.8 -0.765414430987436 15.127490688898513 -9.661862677684237 -73.70436006388645 -9.661862677684237 -73.70436006388645 -0.7662107035348777 15.12718719016428
6.9 -0.7380962574598666 14.58860514119944 -9.867927500502782 -74.25402006751088 -9.867927500502782 -74.25402006750089 -0.7388966060895428 14.588233627771958
7.0 -0.7119117317781031 14.056792029480182 -10.076390657010492 -74.79599280807155 -10.076390657010492 -74.79599280807155 -0.7127163316709064 14.056353015098361
7.1 -0.6868118323901391 13.531838784052889 -10.287364084555579 -75.33049533912784 -10.287364084555577 -75.33049533912784 -0.687620851068667 13.531332741354955
7.2 -0.6627502345966418 13.013539401561216 -10.500966790093305 -75.85773609669111 -10.500966790093305 -75.85773609669111 -0.6635638325976956 13.012966760673102
7.3 -0.6396831429064862 12.501694270174818 -10.717325312865615 -76.37791503387479 -10.717325312865619 -76.37791503387479 -0.6405014744738823 12.501055417839602
7.4 -0.6175691350617681 11.99610999307085 -10.93657424223954 -76.89122373927474 -10.936574242239537 -76.89122373927474 -0.6183923488430642 11.995405272119406
7.5 -0.5963690168427126 11.496599211085217 -11.158856796878995 -77.3978455366578 -11.158856796878995 -77.3978455366578 -0.5971972565782637 11.495828920468215
7.6 -0.5760456868328043 11.002980425686049 -11.38432547212512 -77.8979555633261 -11.384325472125123 -77.8979555633261 -0.576879092022416 11.002144820877605
7.7 -0.5565640103987793 10.515077822801874 -11.613142763955558 -78.39172082407453 -11.61314276395556 -78.39172082407453 -0.5574027169361732 10.514177116654933
7.8 -0.5378907021957515 10.032721098326878 -11.845481978772918 -78.8793002175099 -11.84548197877292 -78.87930021749989 -0.5387348429607481 10.031755462290489
7.9 -0.5199942165674193 9.555745285793334 -12.081528140152589 -79.36084453063881 -12.081528140152587 -79.36084453063881 -0.5208439219687214 9.55471485139894
8.0 -0.5028446452590812 9.08399058664033 -12.321479005200214 -79.83649639761313 -12.321479005200215 -79.83649639761313 -0.5037000437236354 9.082895447263203
8.1 -0.4864136219096726 8.61730220355688 -12.565546205478878 -80.30639021711065 -12.565546205478878 -80.30639021711065 -0.4872748403165749 8.616142416343683
8.2 -0.47067423283004234 8.155530177132002 -12.813956529866166 -80.77065202241958 -12.813956529866166 -80.77065202241958 -0.4715413968875817 8.154305765035712
8.3 -0.45560093361399967 7.6985292260866975 -13.066953369971356 -81.22939929689501 -13.066953369971356 -81.22939929688499 -0.45647416818281106 7.697240179963817
8.4 -0.44116947116261956 7.246158591295421 -13.324798351912552 -81.68274072606584 -13.324798351912555 -81.68274072606584 -0.44204890052723145 7.244804872008611
8.5 -0.4273568107376464 6.798281883730442 -13.587773183334216 -82.13077587597094 -13.587773183334217 -82.13077587597094 -0.4282425588304022 6.796863424212614
8.6 -0.41414106768530107 6.354766936443654 -13.856181749124817 -82.57359478488296 -13.856181749124815 -82.57359478488296 -0.41503325826779425 6.353283643698535
8.7 -0.4015014435049472 5.915485660656081 -14.130352496374952 -83.01127745301861 -14.13035249637495 -83.01127745301861 -0.40240020030996254 5.913937417658315
8.8 -0.38941816595388956 5.480313905999318 -14.410641156655743 -83.44389321116444 -14.41064115665574 -83.44389321116444 -0.3903236127967696 5.478700573484086
8.9 -0.37787243291366546 5.049131324914067 -14.69743386360773 -83.87149994477667 -14.69743386360773 -83.87149994477667 -0.378784693773028 5.047452743036293
9.0 -0.366846359752122 4.621821241201825 -14.991150735930205 -84.29414314432444 -14.991150735930205 -84.29414314432444 -0.36776555882936257 4.620077231069904
9.1 -0.356322929945792 4.198270522715747 -15.292250010641006 -84.71185474556508 -15.292250010641006 -84.71185474556508 -0.35724919170377284 4.196460887783849
9.2 -0.3462859487385336 3.778369458118574 -15.601232830576826 -85.12465171402118 -15.601232830576821 -85.12465171402118 -0.34721939792593964 3.7764939854484725
9.3 -0.336719999630116 3.362011637682517 -15.918648813404012 -85.53253431565801 -15.918648813404012 -85.53253431565801 -0.33766076129354794 3.3600700990789427
9.4 -0.3276104035061367 2.949093838044863 -16.245102559879946 -85.93548400015057 -16.245102559879946 -85.93548400015057 -0.328558602993804 2.947085991065324
9.5 -0.3189431802315881 2.53951591084409 -16.581261296994846 -86.33346080196031 -16.581261296994846 -86.33346080196031 -0.31989894318984996 2.5374414997001518
9.6 -0.3107050125445361 2.133180675167147 -16.927863901574163 -86.72640013670983 -16.927863901574163 -86.72640013670983 -0.31166846491118716 2.131039431514086
9.7 -0.30288321209937996 1.7299938137005384 -17.285731613801488 -87.11420883281566 -17.285731613801488 -87.11420883281566 -0.3038544800935068 1.7277854573373614
9.8 -0.2954656875166861 1.3298637725068385 -17.655780834721927 -87.4967601877983 -17.65578083472193 -87.49676018778831 -0.2964448976285095 1.327588011985541
9.9 -0.28844091431173524 0.932701664329454 -18.03903851288605 -87.87388776872895 -18.03903851287605 -87.87388776872895 -0.28942819329139724 0.9303581974877105
10.0 -0.28179790657771575 0.5384211753118622 -18.4366607747743 -88.24537758014266 -18.4366607747743 -88.24537758013267 -0.28279338142628946 0.5360096897389304
10.1 -0.27552619031322484 0.14693847505629656 -18.849955655021873 -88.61095808653718 -18.84995565502187 -88.61095808653718 -0.2765299882747604 0.14445864849515413
10.2 -0.26961577828662525 -0.24182787009777687 -19.280411057984107 -88.97028738414723 -19.28041105798411 -88.97028738414723 -0.270628026842855 -0.24437636939904567
10.3 -0.2640571463430741 -0.627956980666696 -19.729729464722375 -89.32293653690387 -19.729729464722375 -89.32293653690387 -0.2650779732101622 -0.6305744936504636
10.4 -0.25884121105944274 -1.011525744587657 -20.1998714361903 -89.66836768254842 -20.1998714361903 -89.66836768254842 -0.25987074418839773 -1.0142126211212843
10.5 -0.2539593086664167 -1.3926088948577562 -20.693110729830547 -90.00590490297076 -20.693110729830547 -90.00590490296075 -0.2549976762460152 -1.39536549350109
10.6 -0.2494031751567653 -1.7712790843391764 -21.21210495871197 -90.33469492196157 -21.21210495871197 -90.33469492196157 -0.2504505056198323 -1.7741057721402262
10.7 -0.245164927507039 -2.1476069578316217 -21.759987366157194 -90.65365324715849 -21.759987366157194 -90.65365324715849 -0.24622134954022729 -2.1505041101486735
10.8 -0.24123704594476136 -2.521661221504541 -22.34048776734058 -90.96138907171543 -22.340487767340576 -90.96138907171543 -0.24230268850102993 -2.5246292218401885
10.9 -0.2376123571974192 -2.8935087097802494 -22.95809453449656 -91.25609849713535 -22.95809453449656 -91.25609849713535 -0.23868734951166395 -2.8965479496373248
11.0 -0.2342840186622152 -3.2632144497601376 -23.618275554028383 -91.53540933259593 -23.618275554028383 -91.53540933259593 -0.23536849027083753 -3.2663253285046503
11.1 -0.23124550344398667 -3.6308417232787327 -24.327785935697207 -91.79614978664793 -24.327785935697207 -91.79614978664793 -0.23233958420587436 -3.634024648014975
11.2 -0.2284905862060292 -3.9964521266764033 -25.095106819691463 -92.03399367399633 -25.095106819691463 -92.03399367399633 -0.22959440632825356 -3.99970751212339
11.3 -0.22601332978916688 -4.360105628369541 -25.93108852800665 -92.24289777638374 -25.93108852800665 -92.24289777638374 -0.22712701985395017 -4.3634338967419195
11.4 -0.223808072549635 -4.721860624300008 -26.84992393653538 -92.41417403570595 -26.84992393653538 -92.41417403570595 -0.22493176354479222 -4.725262205193613
11.5 -0.22186941637747515 -5.081773991346728 -27.870678711837723 -92.53488674819987 -27.87067871183772 -92.53488674818986 -0.223003239729465 -5.085249321614953
11.6 -0.2201922153532167 -5.439901138765233 -29.01980985530187 -92.58492329243295 -29.01980985530187 -92.58492329243295 -0.2213363029617893 -5.443450662399389
11.7 -0.21877156500659273 -5.796296057743054 -30.33555142191505 -92.53125421104488 -30.33555142191505 -92.53125421103488 -0.2199260492827598 -5.79992022574191
11.8 -0.2176027921431176 -6.151011369123808 -31.876115369174723 -92.31564253772068 -31.876115369174723 -92.31564253771067 -0.21876780604901108 -6.154710639363484
11.9 -0.21668144520538088 -6.504098369390895 -33.73651938349999 -91.82505371492549 -33.73651938349999 -91.8250537149155 -0.21785712229611115 -6.5078732064793074
12.0 -0.21600328513918657 -6.855607074955637 -36.087782383293295 -90.8077830016307 -36.087782383293295 -90.8077830016307 -0.21718975960676984 -6.859457950081709
12.1 -0.21556427673592102 -7.2055862648268265 -39.286649379182336 -88.5691927080216 -39.286649379182336 -88.56919270800161 -0.216761683455258 -7.209513655597633
12.2 -0.21536058042398207 -7.554083521721531 -44.28543030406212 -82.27331239619637 -44.28543030406212 -82.27331239617638 -0.21656905500040208 -7.558087911986653
12.3 -0.2153885444848781 -7.9011452716721156 -54.3444626488174 -41.897699826695934 -54.34446264881739 -41.89769982669594 -0.21660822330386098 -7.905227151337333
12.4 -0.21564469767063668 -8.246816822186364 -47.87468631192507 58.84072500921453 -47.87468631192507 58.84072500920452 -0.21687571794898983 -8.250976687011008
12.5 -0.21612574219910458 -8.591142399028636 -41.27977133895701 71.01633941022348 -41.279771338957005 71.0163394102135 -0.2173682420378427 -8.595380750405772
12.6 -0.21682854710882007 -8.934165181656045 -37.50825642267288 74.41564401841968 -37.50825642267287 74.41564401840968 -0.21808266554712827 -8.938482526378701
12.7 -0.21775014195148068 -9.275927337371483 -34.88519469679317 75.8512151436378 -34.88519469679317 75.85121514362781 -0.21901601902271903 -9.280324187379259
12.8 -0.21888771080574718 -9.61647005424354 -32.87792627444253 76.54433411579349 -32.87792627444253 76.54433411578349 -0.22016548759456853 -9.620946926350756
12.9 -0.2202385865934734 -9.955833572838227 -31.253934964632993 76.87879207020714 -31.25393496463299 76.87879207020714 -0.22152840529435885 -9.960390988439904
13.0 -0.22180024568477022 -10.294057216795416 -29.891319862937586 77.01319152238727 -29.891319862937586 77.01319152238727 -0.22310224966138065 -10.298695701560394
13.1 -0.22357030277352818 -10.631179422342024 -28.718289929423953 77.02487864045278 -28.718289929423953 77.02487864045278 -0.22488463661967467 -10.63589950585742
13.2 -0.2255465060117478 -10.967237766667893 -27.68902363512812 76.95604050498484 -27.68902363512812 76.95604050498484 -0.22687331561320334 -10.97203998210219
13.3 -0.22772673238769944 -11.302268995403173 -26.772496393778408 76.8316297716677 -26.772496393778408 76.8316297716677 -0.22906616498500162 -11.307153879096315
13.4 -0.2301089833367112 -11.636309048995459 -25.946730842379424 76.66734141925913 -25.946730842379424 76.66734141925913 -0.2314611875889071 -11.64127714005813
13.5 -0.23269138057061056 -11.969393088203415 -25.195591872596207 76.47353575941004 -25.195591872596207 76.47353575941004 -0.2340565066195468 -11.974444928080848
13.6 -0.23547216211694677 -12.301555518720871 -24.506885101168443 76.25732296390362 -24.50688510116844 76.25732296390362 -0.23685036165273154 -12.306691650701577
13.7 -0.23844967855568414 -12.632830014831566 -23.871170626464778 76.02374128607372 -23.871170626464778 76.02374128607373 -0.239841104882354 -12.638050983561186
13.8 -0.24162238944459932 -12.963249542304297 -23.28099183459721 75.77645755375282 -23.280991834587212 75.77645755375282 -0.2430271975459887 -12.968555893224933
13.9 -0.244988859922525 -13.292846380448491 -22.730356410675633 75.51820158050931 -22.730356410675633 75.51820158051932 -0.24640720652921044 -13.298238659253963
14.0 -0.2485477574836564 -13.621652143380361 -22.21437666749236 75.25104537331431 -22.21437666749236 75.2510453733043 -0.2499798011391516 -13.627130895397544
