! Created with skrf 1.12.0 (http://scikit-rf.org).
# GHz S DB R 50.0 
!freq dBS11 angS11 dBS21 angS21 dBS12 angS12 dBS22 angS22
0.01 -27.32023406118907 3.4566056510174845 -0.38152024559673875 -0.1806440838227307 -0.3815202455967398 -0.18064408382063066 -27.32047094199644 3.4555196605564813
0.02 -27.269583943798406 6.88535404945283 -0.381702280312699 -0.3612616823598402 -0.38170228031269693 -0.36126168235884015 -27.269870462401432 6.883350678208457
0.1 -25.89608838211025 30.810522197372165 -0.3874277846831006 -1.8033580434537908 -0.3874277846831015 -1.8033580434537912 -25.89702464308607 30.805041244977065
0.2 -23.208457404379907 48.88894944295803 -0.40450108513419036 -3.5904901107502796 -0.4045010851342894 -3.5904901107502796 -23.209986733496407 48.88447886459231
0.3 -20.703303602139165 58.04546664617756 -0.4309086077062506 -5.353026320496135 -0.43090860770635186 -5.353026320496136 -20.70500737464737 58.04270267811407
0.4 -18.608616025889937 62.7203779623877 -0.4651003861323748 -7.090253551271027 -0.4651003861323738 -7.090253551271026 -18.61035227856636 62.71862106644518
0.5 -16.867779025857907 65.07317720653408 -0.5061823757468182 -8.804468819151936 -0.5061823757468193 -8.804468819151937 -16.869531759964996 65.0720057105688
0.6 -15.401945960066001 66.12742511905746 -0.5537501169606494 -10.497750112148275 -0.5537501169606505 -10.497750112148276 -15.403719477455367 66.12673780895999
0.7 -14.14847997276411 66.40584743856505 -0.6076247057255151 -12.171039597573987 -0.6076247057255151 -12.171039597573987 -14.150268469582779 66.40566470624513
0.8 -13.061431409820747 66.19604866295892 -0.6676892468976765 -13.824314129789435 -0.6676892468976754 -13.82431412978943 -13.063219649340374 66.19638699004985
0.9 -12.107298828337534 65.6665974380912 -0.7338188304751729 -15.456971761397877 -0.733818830475174 -15.456971761397874 -12.109069436117124 65.66743089823821
1.0 -11.261333543847227 64.92168491575265 -0.8058599764540114 -17.068140954049248 -0.8058599764540125 -17.068140954049245 -11.263072187119246 64.92295243254661
1.1 -10.504909364646831 64.02866770654937 -0.8836303661610259 -18.65687582585151 -0.8836303661610259 -18.65687582585151 -10.506606536565037 64.03029290632591
1.2 -9.823731858143889 63.03277825265745 -0.9669250929833068 -20.22226626638705 -0.966925092983309 -20.22226626638705 -9.82538243446847 63.0346858738499
1.3 -9.206623840253652 61.96538647961244 -1.0555239374043055 -21.763494548614585 -1.0555239374043044 -21.763494548614577 -9.208225762505304 61.96751114514095
1.4 -8.644693174245173 60.84884829820763 -1.1491977900049162 -23.27986062797472 -1.149197790004917 -23.279860627974724 -8.646246116962539 60.85113690308582
1.5 -8.130753623288886 59.699463718567316 -1.2477137750145233 -24.770789878284784 -1.2477137750145224 -24.770789878284784 -8.132258008902205 59.70187407731626
1.6 -7.658914813549703 58.52934509898216 -1.3508391405351343 -26.235831385733107 -1.3508391405351365 -26.235831385733107 -7.660371232191082 58.531843102830614
1.7 -7.2242868431927505 57.347634161788356 -1.4583441323775206 -27.674651475965035 -1.4583441323775206 -27.674651475965035 -7.225695798219649 57.35019084978507
1.8 -6.822763874336343 56.161317144319256 -1.5700040822025603 -29.087025101785187 -1.5700040822025625 -29.087025101785187 -6.82412574055116 56.16390636134737
1.9 -6.450863041927473 54.97578463127961 -1.6856009083128778 -30.472826522477362 -1.6856009083128791 -30.47282652247737 -6.45217813706958 54.97838146946228
2.0 -6.105602736694938 53.795224821287114 -1.8049241847806452 -31.832020016562787 -1.8049241847806452 -31.83202001656278 -6.1068714349125885 53.79780478764665
2.1 -5.784409353853089 52.62290548169206 -1.9277718951890401 -33.16465098237107 -1.9277718951890412 -33.16465098237107 -5.785632197085508 52.62544422960217
2.2 -5.485044927266283 51.46137987305662 -2.0539509551273474 -34.47083756980598 -2.0539509551273465 -34.47083756980598 -5.486222711496609 51.463853315166595
2.3 -5.205550301133464 50.312639703215225 -2.183277563088196 -35.75076287814829 -2.1832775630881986 -35.750762878148294 -5.2066841288115935 50.315024343295235
2.4 -4.944200010844689 49.17823050638403 -2.315577421559725 -37.0046677041875 -2.315577421559725 -37.0046677041875 -4.94529130948305 49.180503863079785
2.5 -4.699466094179593 48.05933992791257 -2.4506858575193466 -38.23284380589527 -2.4506858575193466 -38.23284380589528 -4.700516605891078 48.06148096024403
2.6 -4.469988789347348 46.95686617542616 -2.588447862934787 -39.43562764344538 -2.588447862934786 -39.43562764344537 -4.471000538135203 46.95885565220082
2.7 -4.254552598692484 45.871471747180024 -2.7287180701414626 -40.613394563318884 -2.728718070141461 -40.613394563318884 -4.255527842662766 45.873292528937505
2.8 -4.052066572806321 44.80362608777112 -2.8713606732836134 -41.76655339732955 -2.8713606732836134 -41.76655339732955 -4.053007747914918 44.805263308764864
2.9 -3.8615479437732754 43.753639812374075 -3.0162493046129635 -42.89554145435376 -3.0162493046129617 -42.895541454353776 -3.862457604648947 43.7550809638572
3.0 -3.6821084382544305 42.72169243421277 -3.163266872988027 -44.000819886681434 -3.1632668729880242 -44.000819886681434 -3.682989200382031 42.72292735886158
3.1 -3.5129427517020178 41.70785502904615 -3.3123053709644275 -45.08286941673153 -3.3123053709644283 -45.082869416731526 -3.513797238062048 41.70887584072177
3.2 -3.3533187783204492 40.71210891003962 -3.4632656562418784 -46.1421864106365 -3.4632656562418784 -46.14218641063649 -3.354149572441147 40.712909855617575
3.3 -3.20256927751869 39.73436112633367 -3.61605721275799 -47.179279286466404 -3.6160572127579913 -47.179279286466404 -3.203378884036807 39.734938405554416
3.4 -3.0600847236256956 38.77445740633455 -3.77059789634691 -48.19466524409655 -3.770597896346909 -48.19466524409654 -3.06087553668122 38.7748089650775
3.5 -2.9253071365799195 37.83219302633037 -3.9268136694856057 -49.18886730346079 -3.9268136694856044 -49.18886730346079 -2.9260814158796604 37.83231833599017
3.6 -2.797724731004156 36.90732197881316 -4.084638329332588 -50.16241163657043 -4.08463832933259 -50.16241163657043 -2.7984845849976496 36.907221812600895
3.7 -2.6768672521134103 35.999564735786514 -4.244013232839824 -51.11582517839214 -4.244013232839824 -51.11582517839214 -2.6776146275245654 35.99924095032175
3.8 -2.5623018914204794 35.10861484203934 -4.404887022396048 -52.04963350019246 -4.404887022396048 -52.049633500192456 -2.56303856825053 35.10807017029
3.9 -2.4536296946095626 34.23414452717274 -4.56721535505445 -52.9643589290282 -4.56721535505445 -52.9643589290282 -2.454357285699982 34.23338238698111
4.0 -2.35048238944445 33.375809489369615 -4.730960638041854 -53.86051889624396 -4.730960638041855 -53.86051889624395 -2.3512023437139535 33.374833810173634
4.1 -2.2525195740109902 32.53325297639314 -4.896091772913418 -54.73862449793926 -4.896091772913418 -54.73862449793926 -2.2532331825552814 32.53206804538189
4.2 -2.1594262155939363 31.70610926709839 -5.062583910362257 -55.59917925034967 -5.062583910362259 -55.59917925034967 -2.1601346199040536 31.704719595161762
4.3 -2.0709104186119784 30.894006639722864 -5.23041821741526 -56.4426780235676 -5.23041821741526 -56.4426780235676 -2.0716146202894024 30.892416846644814
4.4 -1.9867014266588194 30.09656989898295 -5.399581658461726 -57.26960613727086 -5.399581658461727 -57.269606137270856 -1.987402298072321 30.09478461692864
4.5 -1.9065478290701419 29.31342252316672 -5.570066791333276 -58.08043860288965 -5.570066791333278 -58.08043860288965 -1.9072461245307013 29.311446317083085
4.6 -1.8302159469389725 28.544188482815528 -5.7418715794304385 -58.87563949736563 -5.741871579430441 -58.87563949736563 -1.8309123140170216 28.54202578626592
4.7 -1.75748837711855 27.788493775441392 -5.91499922073273 -59.655661454310746 -5.91499922073273 -59.655661454310746 -1.7581833678403402 27.786148840134093
4.8 -1.6881626758695398 27.04596771411908 -6.089457994363999 -60.4209452593976 -6.089457994363999 -60.4209452593976 -1.6888567575652635 27.04344457168033
4.9 -1.6220501662883404 26.316244002865815 -6.265261125295779 -61.17191953749821 -6.26526112529578 -61.17191953749821 -1.6227437319466227 26.3135464370078
5.0 -1.558974855850665 25.598961627024263 -6.4424266676684585 -61.90900052008342 -6.442426667668457 -61.90900052008342 -1.5596682338624746 25.59609315488847
5.1 -1.4987724521545926 24.893765583326758 -6.620977407150697 -62.632591882141256 -6.620977407150694 -62.632591882141256 -1.4994659153829333 24.890729444383343
5.2 -1.4412894664939369 24.200307471011676 -6.800940782748665 -63.34308463876929 -6.800940782748665 -63.34308463876929 -1.4419832406252253 24.19710662238554
5.3 -1.3863823961801034 23.518245962644396 -6.982348828437271 -64.04085709235264 -6.982348828437272 -64.04085709235264 -1.3870766673511323 23.51488307968872
5.4 -1.333916977634465 22.84724717084793 -7.165238135026434 -64.726274821867 -7.165238135026435 -64.726274821867 -1.334611899323842 22.843724651995828
5.5 -1.283767503207315 22.186984925308995 -7.349649832706278 -65.39969070678369 -7.3496498327062785 -65.39969070678369 -1.2844632024229878 22.183304900304147
5.6 -1.2358161955189613 21.537140972367684 -7.535629594768869 -66.06144497836212 -7.535629594768868 -66.06144497836212 -1.2365127783065217 21.53330531307464
5.7 -1.1899526337834352 20.897405108149137 -7.723227663097921 -66.71186529195286 -7.723227663097923 -66.71186529195286 -1.1906501900937814 20.89341544133418
5.8 -1.146073227241134 20.267475254657175 -7.912498896100751 -67.35126681415403 -7.912498896100754 -67.35126681415403 -1.1467718351859824 20.26333297622049
5.9 -1.1040807312914476 19.647057487300668 -8.103502839908467 -67.97995231945188 -8.103502839908467 -67.97995231945187 -1.1047804608511549 19.64276377741052
6.0 -1.0638838024422963 19.035866021063512 -8.296303823790334 -68.59821229089603 -8.296303823790334 -68.59821229089603 -1.0645847186473583 19.03142185983333
6.1 -1.025396588561231 18.43362316166042 -8.490971080912947 -69.20632502015894 -8.490971080912947 -69.20632502015896 -1.0260987542068793 18.42902934501931
6.2 -0.9885383512835841 17.840059227260227 -8.687578895776769 -69.80455670204843 -8.687578895776769 -69.80455670204843 -0.9892418292200689 17.835316382867884
6.3 -0.9532331177613306 17.254912445739674 -8.88620677987344 -70.39316151917187 -8.886206779873438 -70.39316151917187 -0.9539379727908593 17.250021048556135
6.4 -0.9194093591895105 16.677928831530025 -9.086939677380052 -70.97238171209048 -9.086939677380052 -70.97238171209048 -0.9201156596219433 16.67288921896095
6.5 -0.8869996938227481 16.108862045829458 -9.289868202993572 -71.54244763075114 -9.28986820299357 -71.54244763075114 -0.8877075127204547 16.103674432377648
6.6 -0.8559406123974318 15.547473243434176 -9.495088914341377 -72.10357776247406 -9.495088914341379 -72.10357776247406 -0.856650028547392 15.542137734647852
6.7 -0.8261722240791782 14.993530908861334 -9.702704621806781 -72.65597873199332 -9.702704621806781 -72.65597873199332 -0.8268833227224593 14.988047514579591
6.8 -0.797638021228705 14.446810684276546 -9.912824739012422 -73.19984526841841 -9.91282473901242 -73.19984526841841 -0.7983508945797335 14.44117933106266
6.9 -0.7702846614384715 13.907095191199064 -10.125565677757141 -73.73536013394383 -10.125565677757141 -73.73536013394384 -0.7709994090195913 13.90131573403204
7.0 -0.7440617654308854 13.374173847877563 -10.341051291740058 -74.26269400841434 -10.341051291740055 -74.26269400841436 -0.744778494248451 13.36824608097236
7.1 -0.7189217295396931 12.847842683829272 -10.55941337405834 -74.78200532322387 -10.559413374058337 -74.78200532322387 -0.7196405541232356 12.84176635065609
7.2 -0.6948195516049273 12.327904152845228 -10.78079221437918 -75.29344003735481 -10.780792214379177 -75.29344003735483 -0.6955405939309993 12.321678955358285
7.3 -0.6717126692208629 11.814166945604317 -11.005337222311507 -75.79713134720626 -11.005337222311503 -75.79713134720626 -0.6724360585386803 11.807792552650362
7.4 -0.6495608093630506 11.306445802838551 -11.233207624902633 -76.29319932070818 -11.23320762490263 -76.29319932070818 -0.6502866819398678 11.299921857825533
7.5 -0.6283258485103994 10.804561329922107 -11.46457324706336 -76.78175044466987 -11.46457324706336 -76.78175044466987 -0.6290543473098065 10.79788745770823
7.6 -0.6079716824482261 10.30833981342642 -11.699615385451763 -77.26287707244028 -11.699615385451764 -77.26287707244028 -0.608702956755406 10.301515626539798
7.7 -0.5884641050133184 9.81761304027433 -11.938527787885873 -77.73665675681828 -11.938527787885873 -77.73665675681828 -0.5891983100183056 9.810638144454565
7.8 -0.5697706950979174 9.33221812003969 -12.181517752365567 -78.20315145015118 -12.181517752365567 -78.20315145015118 -0.5705079914474815 9.32509211912749
7.9 -0.5518607112928551 8.851997310586064 -12.428807362253814 -78.66240655044926 -12.428807362253814 -78.66240655044926 -0.5526012646188463 8.844719810818146
8.0 -0.5347049935948909 8.376797847495544 -12.680634876947458 -79.11444976795512 -12.680634876947456 -79.11444976795512 -0.5354489740284575 8.369368461241978
8.1 -0.5182758716566506 7.90647177745736 -12.93725630083772 -79.55928978171569 -12.93725630083772 -79.55928978171569 -0.5190234533336269 7.898890126430457
8.2 -0.5025470790951655 7.44087579580997 -13.198947157290453 -79.99691464916606 -13.198947157290455 -79.99691464916604 -0.5032984396587481 7.433141513789912
8.3 -0.48749367341625327 6.979871088370059 -13.466004499646413 -80.42728992406279 -13.466004499646417 -80.42728992406279 -0.48824899352290285 6.971983823471306
8.4 -0.47309196114779345 6.523323177637984 -13.738749196941464 -80.85035642822649 -13.738749196941466 -80.85035642822648 -0.47385142397922386 6.515282594162552
8.5 -0.45931942780634233 6.071101773428926 -14.017528539556977 -81.2660276102612 -14.017528539556976 -81.2660276102612 -0.46008321859202717 6.0629075533396755
8.6 -0.4461546723506623 5.623080627971075 -14.302719218980275 -81.67418640913048 -14.302719218980277 -81.67418640913048 -0.446922977904105 5.614732472003005
8.7 -0.43357734580587537 5.179137395443976 -14.59473074694548 -82.07468152044821 -14.59473074694548 -82.07468152044821 -0.434350354075828 5.170635023905581
8.8 -0.4215680937613389 4.739153495959113 -14.894009393034448 -82.46732293881382 -14.894009393034448 -82.46732293881382 -0.4223459934018193 4.730496649232857
8.9 -0.4101085024740415 4.303013983924832 -15.20104273687814 -82.85187661674036 -15.201042736878138 -82.85187661674036 -0.41089148243331053 4.294202422712733
9.0 -0.39918104832584456 3.8706074207464662 -15.51636495285831 -83.22805803954489 -15.51636495285831 -83.22805803954489 -0.3999692974557389 3.861640926068789
9.1 -0.38876905040308674 3.441825751790598 -15.840562972179535 -83.5955244608604 -15.840562972179535 -83.5955244608604 -0.3895627570905946 3.4327041247786934
9.2 -0.3788566259859221 3.01656418753628 -16.174283702121656 -83.95386547202794 -16.174283702121652 -83.95386547202794 -0.3796559778066278 3.0072872490295164
9.3 -0.36942864874851167 2.5947210888169825 -16.51824252659259 -84.30259148396905 -16.518242526592594 -84.30259148396905 -0.3702338321430648 2.5852886787947353
9.4 -0.3604707094876755 2.176197856072965 -16.87323336943164 -84.64111957295695 -16.87323336943164 -84.64111957295695 -0.3612819094607892 2.1666098329366754
9.5 -0.351969079211325 1.7608988225007711 -17.240140677043108 -84.96875597059662 -17.240140677043108 -84.96875597059662 -0.3527864790540511 1.7511550622249819
9.6 -0.34391067442806517 1.3487311510064355 -17.619953775050416 -85.28467424377271 -17.619953775050412 -85.28467424377271 -0.34473445546236775 1.3388315461797715
9.7 -0.33628302449333763 0.9396047348494039 -18.013784184490586 -85.58788788731468 -18.01378418449059 -85.5878878873247 -0.3371133658401225 0.9295491936200213
9.8 -0.3290742408783953 0.5334321018755743 -18.422886658179248 -85.8772155998692 -18.422886658179248 -85.8772155998692 -0.32991131924658346 0.5232205468117271
9.9 -0.32227298823452477 0.13012832222638507 -18.848684935495896 -86.1512368733986 -18.8486849354959 -86.15123687340862 -0.3231169777329112 0.11976068911361408
10.0 -0.315868457138305 -0.27038908058260835 -19.29280353988975 -86.40823460801566 -19.292803539889753 -86.40823460801566 -0.31671952910766105 -0.28091284400034666
10.1 -0.30985033840908055 -0.6682002153227304 -19.757107396445882 -86.64612012349353 -19.757107396445882 -86.64612012349353 -0.3107086612756592 -0.6788801506439913
10.2 -0.3042087988978979 -1.0633829055592576 -20.24375168535179 -86.86233395313143 -20.24375168535179 -86.86233395314142 -0.3050745380464901 -1.0742190450591913
10.3 -0.298934458656521 -1.456012769114298 -20.75524526031439 -87.05371280804454 -20.75524526031439 -87.05371280804454 -0.29980777632252736 -1.4670051370956885
10.4 -0.2940183693968324 -1.8461632945820314 -21.294532288937333 -87.21630848583897 -21.294532288937333 -87.21630848584896 -0.2948994245772238 -1.8573119087470211
10.5 -0.2894519941630622 -2.2339059150104954 -21.86509873657876 -87.34513723896056 -21.86509873657876 -87.34513723897057 -0.29034094254497994 -2.2452107878310064
10.6 -0.2852271881386611 -2.6193100788416115 -22.471113280009337 -87.4338264184678 -22.47111328001934 -87.4338264184678 -0.28612418204481244 -2.6307712189266956
10.7 -0.28133618052062875 -3.002443318209695 -23.11761680563074 -87.47410584294832 -23.11761680563074 -87.47410584294832 -0.2822413688709851 -3.0140607316620396
10.8 -0.27777155739383164 -3.3833713146944606 -23.81078185293439 -87.45505830637883 -23.810781852934383 -87.45505830638885 -0.2786850856827465 -3.3951450064572115
10.9 -0.2745262455452334 -3.762157962626337 -24.558275023250552 -87.36198534917823 -24.558275023250552 -87.36198534918822 -0.2754482558331724 -3.774087937798348
11.0 -0.2715934971618551 -4.1388654300258025 -25.369774769167783 -87.17463755006375 -25.369774769167783 -87.17463755006375 -0.27252412808069565 -4.150951695155511
11.1 -0.26896687535821323 -4.513554217272614 -26.25773023188266 -86.86435388573982 -26.25773023188266 -86.86435388574981 -0.2699062621298388 -4.525796781619663
11.2 -0.2666402404857017 -4.886283213585683 -27.238505644469754 -86.38924221071963 -27.238505644469754 -86.38924221072963 -0.2675885149528111 -4.898682090344463
11.3 -0.2646077371750383 -5.25710975139643 -28.33416235085202 -85.68565121631907 -28.334162350852022 -85.68565121632906 -0.2655650278431598 -5.269664958881746
11.4 -0.26286378207123456 -5.6260896587004945 -29.575332332861286 -84.65216406245284 -29.575332332861286 -84.65216406246284 -0.26383021416177854 -5.638801221486481
11.5 -0.26140305221938925 -5.9932773094536 -31.006018573699205 -83.11731681620303 -31.0060185736992 -83.11731681621302 -0.26237874773225706 -6.006145259475107
11.6 -0.26022047406328136 -6.358725672100479 -32.691828862298266 -80.76844009844935 -32.691828862298266 -80.76844009845932 -0.26120555184925986 -6.371750049695095
11.7 -0.2593112130224848 -6.72248635629365 -34.73381035782318 -76.9764696966714 -34.73381035782318 -76.97646969669141 -0.2603057888635093 -6.735667211204598
11.8 -0.2586706636142063 -7.084609657888065 -37.28550728194251 -70.3036018184629 -37.2855072819425 -70.30360181847288 -0.2596748503118025 -7.097947050203108
11.9 -0.25829444008905145 -7.445144602258363 -40.50588895170034 -56.95551942623709 -40.50588895171035 -56.955519426267095 -0.25930834755980076 -7.458638603301981
12.0 -0.2581783675515025 -7.804138986019715 -43.77932420756846 -27.439652082284358 -43.779324207578455 -27.439652082294362 -0.25920210292922147 -7.817789679187766
12.1 -0.2583184735391027 -8.161639417208171 -43.50108087842845 16.59673893630929 -43.50108087842845 16.5967389363293 -0.25935214128210243 -8.175446898744205
12.2 -0.2587109800325483 -8.517691353972348 -40.1533637073542 43.51815429481193 -40.1533637073542 43.51815429483193 -0.25975468203704344 -8.531655733688874
12.3 -0.2593522958755793 -8.872339141850466 -37.06093686269447 55.70037209760425 -37.060936862694476 55.700372097624246 -0.2604061315927923 -8.886460543788354
12.4 -0.2602390095798166 -9.225626049668591 -34.62717132810567 61.9033244822969 -34.62717132810567 61.903324482316876 -0.2613030761370972 -9.239904612702874
12.5 -0.2613678824949645 -9.577594304128048 -32.68160573591488 65.47982480237643 -32.68160573591488 65.47982480238645 -0.2624422748210926 -9.59203018250436
12.6 -0.26273584232409075 -9.928285123119922 -31.077497222502906 67.72052636768052 -31.077497222502906 67.72052636769051 -0.26382065327633625 -9.94287848694483
12.7 -0.2643399769660274 -10.277738747829611 -29.719057179617614 69.19983913871157 -29.71905717961762 69.19983913872159 -0.26543529745983957 -10.292489783492103
12.8 -0.2661775286656513 -10.625994473673314 -28.543910404977368 70.20711924060984 -28.543910404977375 70.20711924060984 -0.26728344780635815 -10.640903384191738
12.9 -0.2682458884585631 -10.973090680069545 -27.510034335284548 70.90268684513525 -27.51003433528455 70.90268684514525 -0.26936249367374815 -10.988157685435207
13.0 -0.2705425908919274 -11.3190648591964 -26.588050686329318 71.38213399873835 -26.588050686329318 71.38213399874834 -0.27166996806458127 -11.33429019659619
13.1 -0.27306530900845966 -11.66395364365977 -25.756722453743453 71.70584590531045 -25.756722453743453 71.70584590532044 -0.27420354261030155 -11.679337567651057
13.2 -0.27581184957995475 -12.007792833158327 -25.000247277714305 71.9137788093729 -25.00024727771431 71.9137788093729 -0.2769610228048133 -12.023335615818414
13.3 -0.2787801485766178 -12.350617420189234 -24.306571622208896 72.0333948952855 -24.306571622208896 72.03339489528551 -0.2799403434726275 -12.366319351169723
13.4 -0.2819682668612378 -12.692461614834642 -23.666303749938088 72.08417550715403 -23.666303749938088 72.08417550715403 -0.28313956446160354 -12.708323001400998
13.5 -0.2853743860960634 -13.033358868678846 -23.071990295400923 72.08031447550725 -23.071990295400923 72.08031447551726 -0.28655686654855705 -13.049380035655483
13.6 -0.28899680485103996 -13.37334189778615 -22.517621032149012 72.03239198665302 -22.517621032149012 72.03239198665302 -0.29019054754562035 -13.38952318745738
13.7 -0.2928339349053604 -13.712442704929348 -21.998281251811044 71.9484516398136 -21.998281251811047 71.9484516398136 -0.29403901859859094 -13.728784476916543
13.8 -0.29688429773073666 -14.050692601018838 -21.509902268877397 71.8347146188505 -21.509902268877397 71.83471461886049 -0.2981008006678 -14.06719523204415
13.9 -0.30114652114797 -14.38812222567237 -21.049078772124787 71.6960658283984 -21.04907877212479 71.6960658283984 -0.302374521181265 -14.404786109349342
14.0 -0.3056193361489778 -14.724761567185329 -20.612932726111083 71.53639253762859 -20.612932726111083 71.53639253762859 -0.3068589108530613 -14.741587113676827
