! Created with skrf 1.12.0 (http://scikit-rf.org).
# GHz S DB R 50.0 
!freq dBS11 angS11 dBS21 angS21 dBS12 angS12 dBS22 angS22
0.01 -29.428941376895082 4.852767795669417 -0.2973161244044364 -0.19440915056315206 -0.2973161244045392 -0.194409150558852 -29.428985818745446 4.8526497475326735
0.02 -29.30687729034122 9.43434076887368 -0.2985407238234877 -0.3829422708905104 -0.2985407238234857 -0.38294227088841043 -29.306952317958313 9.435306810884136
0.1 -27.105327626003927 37.676547504191205 -0.3091448208621728 -1.8461632878808172 -0.30914482086227274 -1.8461632878798173 -27.10442224797677 37.66715727056908
0.2 -23.71621286703507 55.11284517065067 -0.3299556546189761 -3.6430668466182774 -0.3299556546190743 -3.6430668466182747 -23.717582594224 55.09908618244273
0.3 -20.926855737335682 62.78885520133531 -0.3597009051597949 -5.4099524571792355 -0.3597009051598944 -5.409952457179235 -20.929039195458124 62.78187053815515
0.4 -18.718334373433457 66.329621821145 -0.3972037046560592 -7.145217048813603 -0.39720370465606014 -7.145217048813603 -18.72042777847635 66.32709148312173
0.5 -16.9317078787696 67.89274825811769 -0.44132011240675695 -8.850730316838671 -0.44132011240675695 -8.850730316837675 -16.93356554116837 67.89181213919878
0.6 -15.449231004159941 68.40088812716637 -0.49135463391848105 -10.529492028953605 -0.49135463391848105 -10.529492028953603 -15.450948840686728 68.40018828953811
0.7 -14.192000104249967 68.29927957762108 -0.5469315999511808 -12.18402863115882 -0.5469315999512815 -12.18402863115882 -14.19368355969099 68.29852779085613
0.8 -13.106639742419425 67.82341142193454 -0.6078445850196866 -13.816052394777746 -0.6078445850196866 -13.816052394777746 -13.108342659079996 67.8227605911096
0.9 -12.15607364719133 67.10695391079541 -0.6739654293755235 -15.426560498971813 -0.6739654293755235 -15.426560498971813 -12.157805003945386 67.10662129797986
1.0 -11.313810111851764 66.23032459292351 -0.7451964977862023 -17.016013371771272 -0.745196497786303 -17.016013371771276 -11.315555531233251 66.23044820970263
1.1 -10.560405571494602 65.24439714812485 -0.8214464298759478 -18.584494151149425 -0.8214464298760487 -18.58449415114943 -10.56214400252337 65.2450187214241
1.2 -9.881231722103616 64.18281810910435 -0.9026181853165138 -20.131834270350023 -0.9026181853165159 -20.131834270350023 -9.882944088363862 64.18391120123488
1.3 -9.265031712659491 63.06873520000384 -0.9886037407050645 -21.657708814440795 -0.9886037407051629 -21.6577088144408 -9.266703814211493 63.070237586805725
1.4 -8.702964201979915 61.91863406299565 -1.0792824899744102 -23.16170758968337 -1.0792824899744111 -23.16170758968337 -8.704586702748768 61.92047071076979
1.5 -8.187955968477375 60.74461142157432 -1.174521693922336 -24.64338717199645 -1.1745216939223382 -24.64338717199646 -8.189523365909112 60.74670719189212
1.6 -7.714254033447723 59.55577002914299 -1.2741780064962673 -26.102308260480154 -1.2741780064962673 -26.10230826048015 -7.7157635475607975 59.558055235459506
1.7 -7.277109544158405 58.35910327538059 -1.3780995002486551 -27.538061811875046 -1.378099500248653 -27.538061811875046 -7.278560254250851 58.36151532330485
1.8 -6.87255043092288 57.160073817471485 -1.486127852529868 -28.950286691846625 -1.486127852529868 -28.950286691846618 -6.873942694229771 57.16255713292569
1.9 -6.497215018985985 55.96300334254768 -1.5981004997335357 -30.338680957681387 -1.5981004997335357 -30.338680957681387 -6.498550102934183 55.965508780790714
2.0 -6.148228247581596 54.77134250827332 -1.7138526548224298 -31.703008385890456 -1.7138526548224298 -31.703008385890456 -6.149508095176609 54.77382675665151
2.1 -5.8231081751956415 53.58786287150427 -1.833219135691972 -33.043101469152205 -1.833219135691973 -33.04310146915222 -5.824335242751516 53.59028799090625
2.2 -5.519694354140595 52.41479676359135 -1.9560359826848468 -34.35886181145793 -1.9560359826848468 -34.35886181145792 -5.52087148447323 52.41712985425685
2.3 -5.236092230465351 51.25394161343471 -2.0821418615361837 -35.65025862912803 -2.0821418615361837 -35.650258629128025 -5.237222543096308 51.25615454465881
2.4 -4.970629448932332 50.10673944267697 -2.2113792583829968 -36.91732589926234 -2.211379258382998 -36.91732589926233 -4.971716240309111 50.10880859100849
2.5 -4.721821116008272 48.974338649976076 -2.343595479270282 -38.16015857208857 -2.3435954792702827 -38.16015857208858 -4.722867768637135 48.976244611356634
2.6 -4.488341884303549 47.85764290145362 -2.47864346969851 -39.37890816836829 -2.478643469698507 -39.3789081683683 -4.489351786001114 47.85937016367474
2.7 -4.269003289853133 46.75735044899343 -2.6163824711755677 -40.57377800955372 -2.6163824711755694 -40.57377800955371 -4.269979764684589 46.75888702626119
2.8 -4.062735177015478 45.673986208164926 -2.75667853210746 -41.7450182710942 -2.756678532107463 -41.74501827109421 -4.063681428930004 45.6753232482679
2.9 -3.8685703358393435 44.60792826059694 -2.899404890085533 -42.89292100404522 -2.899404890085534 -42.89292100404523 -3.869489405223216 44.6090596391721
3.0 -3.6856316878761315 43.55942998961302 -3.0444422419092527 -44.01781523447715 -3.0444422419092527 -44.01781523447714 -3.6865264204918926 43.56035190599226
3.1 -3.5131215117160677 42.52863874075585 -3.1916789167533066 -45.12006222147599 -3.191678916753305 -45.12006222147599 -3.5139945389217937 42.529349328415194
3.2 -3.350312315007282 41.51561167568695 -3.3410109667336925 -46.200050931924544 -3.3410109667336925 -46.200050931924544 -3.351166043822109 41.516110637415544
3.3 -3.196539046350964 40.52032932837194 -3.492342187972248 -47.258193771741 -3.4923421879722465 -47.258193771741 -3.197375657753341 40.52061760330906
3.4 -3.051192406121763 39.542707257034465 -3.6455840840429143 -48.29492259926434 -3.6455840840429143 -48.29492259926434 -3.052013859924934 39.54278672405062
3.5 -2.9137130653289844 38.5826061005925 -3.800655782458145 -49.31068503452309 -3.800655782458145 -49.31068503452309 -2.914521110094856 38.58247931995831
3.6 -2.783586640240498 37.639840285568425 -3.9574839137391224 -50.305941069625426 -3.9574839137391242 -50.30594106962541 -2.7843828268081983 37.639510279029714
3.7 -2.660339300373698 36.714185582041196 -4.116002461488655 -51.281159978458525 -4.116002461488655 -51.281159978458525 -2.6611249977615836 36.71365564972327
3.8 -2.543533910820166 35.80538567086504 -4.276152590873131 -52.236817518500885 -4.276152590873129 -52.236817518500885 -2.54431032346882 35.8046592427328
3.9 -2.4327666282155263 34.91315785703135 -4.437882461964225 -53.17339341408522 -4.437882461964225 -53.17339341408522 -2.433534813714219 34.912238375484414
4.0 -2.327663884206896 34.03719804138601 -4.601147033550573 -54.09136910727339 -4.601147033550573 -54.091369107273394 -2.328424770841129 34.03608887169117
4.1 -2.2278797018086967 33.17718504634497 -4.765907862219427 -54.991225761036056 -4.765907862219429 -54.991225761036056 -2.2286341054156558 33.17588941098926
4.2 -2.1330932993167298 32.33278437659135 -4.932132900845817 -55.87344249799214 -4.932132900845815 -55.873442497992144 -2.133841939099007 32.331305310071784
4.3 -2.043006943904738 31.50365148479198 -5.099796299985099 -56.73849485771419 -5.099796299985099 -56.738494857714194 -2.043750456952835 31.50199180522832
4.4 -1.9573440230598493 30.689434602623717 -5.268878215128586 -57.58685345521805 -5.268878215128586 -57.58685345521804 -1.9580829774499018 30.687596897162567
4.5 -1.8758473069535162 29.889777189916142 -5.439364622331775 -58.41898282371668 -5.439364622331775 -58.41898282371668 -1.8765822133698657 29.88776381079482
4.6 -1.798277378880355 29.10432004755064 -5.611247144301209 -59.235340425001134 -5.6112471443012115 -59.235340425001134 -1.7990087007545932 29.102133116520456
4.7 -1.7244112142100096 28.33270313479151 -5.784522888685357 -60.03637581170417 -5.784522888685357 -60.03637581170417 -1.7251393764495462 28.33034455343062
4.8 -1.6540408910700304 27.57456712605913 -5.959194300051097 -60.822529926295736 -5.959194300052095 -60.822529926295736 -1.6547662874420823 27.572038590424953
4.9 -1.586972418258742 26.829554738849207 -6.135269026779535 -61.59423452271397 -6.135269026779536 -61.59423452271397 -1.5876954175605178 26.826857756621752
5.0 -1.523024667828483 26.097311859956807 -6.312759803913956 -62.35191169729988 -6.312759803913953 -62.35191169729988 -1.5237456189417786 26.094447769103297
5.1 -1.4620284013707932 25.377488494767015 -6.491684352898468 -63.09597351686921 -6.491684352898471 -63.09597351686921 -1.4627476373544834 25.374458482569263
5.2 -1.403825380442649 24.6697395609573 -6.672065298973109 -63.82682173236097 -6.672065298973107 -63.82682173236098 -1.404543221762039 24.666544682753006
5.3 -1.3482675526963037 23.973725545830156 -6.853930106983734 -64.54484756780867 -6.853930106983733 -64.54484756780869 -1.348984309737331 23.970366742859234
5.4 -1.2952163063181257 23.289113044166434 -7.037311036295027 -65.25043157486677 -7.037311036295026 -65.25043157486675 -1.2959322812823093 23.285591160243822
5.5 -1.2445417861867656 22.615575191712523 -7.222245115489741 -65.94394354428212 -7.222245115489743 -65.94394354428212 -1.2452572744815686 22.611890988288607
5.6 -1.1961222659516388 21.9527920073562 -7.408774137572076 -66.62574246626899 -7.408774137572076 -66.62574246626899 -1.1968375571669192 21.948946177106105
5.7 -1.1498435708205232 21.30045065598761 -7.596944676426839 -67.29617653251204 -7.596944676426838 -67.29617653251205 -1.150558949378628 21.29644383461058
5.8 -1.105598546444824 20.658245642293327 -7.786808125377998 -67.95558317324236 -7.786808125378 -67.95558317324235 -1.1063142919958453 20.654078418713308
5.9 -1.0632865697569585 20.025878944752694 -7.978420758763809 -68.6042891234086 -7.978420758763809 -68.6042891234086 -1.0640029573795553 20.021551869760955
6.0 -1.022813098034019 19.403060097955997 -8.171843817601738 -69.242610512445 -8.171843817601738 -69.242610512445 -1.0235303982961925 19.398573691317186
6.1 -0.9840892528511385 18.789506230405795 -8.367143620545013 -69.87085297274626 -8.367143620545013 -69.87085297274628 -0.9848077317758837 18.784860986697897
6.2 -0.9470314359189977 18.184942064222394 -8.564391701532625 -70.48931176234967 -8.564391701532625 -70.48931176234967 -0.9477513548901685 18.180138457351717
6.3 -0.9115609740756635 17.589099882195498 -8.763664975732361 -71.09827189754293 -8.763664975732361 -71.09827189754293 -0.9122825897092584 17.584138368947393
6.4 -0.8776037909850337 17.0017194672044 -8.965045935638287 -71.69800829179667 -8.965045935638289 -71.69800829179667 -0.8783273549914559 16.996600489850305
6.5 -0.8450901033112828 16.422548018399088 -9.168622879451952 -72.2887858972896 -9.16862287945195 -72.2887858972896 -0.8458158623635825 16.41727200646068
6.6 -0.8139541393504867 15.851340047705124 -9.374490174224576 -72.87085984574425 -9.374490174224576 -72.87085984574423 -0.8146823349709525 15.845907419116097
6.7 -0.7841338782868822 15.287857260255159 -9.582748556601134 -73.44447558544118 -9.582748556601134 -73.44447558544118 -0.7848647467597508 15.282268421961161
6.8 -0.7555708084036504 14.731868421460081 -9.793505474427409 -74.00986901130888 -9.793505474427409 -74.0098690113089 -0.7563045807200774 14.726123769657292
6.9 -0.7282097027302112 14.183149213432745 -10.006875473028732 -74.56726658500698 -10.006875473028733 -74.56726658500698 -0.7289466045668401 14.177249133375538
7.0 -0.7019984107419324 13.641482082807318 -10.222980630501223 -75.11688544205035 -10.222980630501223 -75.11688544205035 -0.7027386624745144 13.63542694845536
7.1 -0.676887664845584 13.106656082087204 -10.44195104698315 -75.65893348284098 -10.441951046983146 -75.65893348284098 -0.6776314815965844 13.10044625553237
7.2 -0.6528309004994276 12.578466706024384 -10.663925393812058 -76.19360944430575 -10.663925393812054 -76.19360944430576 -0.6535784922171511 12.572102536857816
7.3 -0.6297840889091167 12.056715724623093 -10.88905152915008 -76.72110294862703 -10.88905152915008 -76.72110294862703 -0.6305356604759684 12.05019754923259
7.4 -0.6077055813344425 11.541211013950436 -11.117487187868996 -77.2415945253637 -11.117487187868992 -77.24159452536371 -0.6084613327012299 11.53453915475859
7.5 -0.5865559641216607 11.031766385856727 -11.34940075469335 -77.7552556025904 -11.349400754693349 -77.7552556025904 -0.5873160904633108 11.024941150639801
7.6 -0.5662979236492706 10.528201417497897 -11.584972130882074 -78.26224846236269 -11.584972130882075 -78.26224846236269 -0.5670626155395394 10.521223098735874
7.7 -0.5468961204435567 10.030341281532476 -11.824393706808822 -78.7627261549856 -11.824393706808822 -78.7627261549856 -0.5476655640440102 10.02321015580029
7.8 -0.5283170717791403 9.538016577581441 -12.06787145432136 -79.25683236566378 -12.067871454321361 -79.25683236566378 -0.5290914490393807 9.530732905048568
7.9 -0.5105290421376076 9.051063165557036 -12.31562615554022 -79.74470122627113 -12.315626155540219 -79.74470122627113 -0.5113085310034073 9.043627189549637
8.0 -0.49350194094577937 8.569322001310622 -12.567894787536833 -80.22645706321781 -12.567894787536833 -80.22645706321782 -0.4942867155716451 8.56173394798928
8.1 -0.4772072270633104 8.092638975014559 -12.824932085551284 -80.70221407103323 -12.824932085551284 -80.70221407103324 -0.47799745802744276 8.084899053134771
8.2 -0.4616178195292653 7.620864752593868 -13.087012311899901 -81.17207589908283 -13.0870123118999 -81.17207589908283 -0.46241367404762557 7.612973153352289
8.3 -0.4467080141183162 7.153854620442432 -13.354431262352765 -81.63613513610733 -13.354431262352765 -81.63613513610733 -0.4475096562559852 7.145811517424018
8.4 -0.43245340529042353 6.69146833366933 -13.627508548161202 -82.09447267417293 -13.627508548161204 -82.09447267417293 -0.43326099616907315 6.68327388286135
8.5 -0.4188308131512886 6.233569967992801 -13.906590198945533 -82.54715692935092 -13.906590198945533 -82.54715692935093 -0.419644511150222 6.225224307890878
8.6 -0.4058182150702913 5.780027775434303 -14.19205164131289 -82.99424289128535 -14.192051641312888 -82.99424289128535 -0.4066381760211347 5.771531027204335
8.7 -0.39339468162971725 5.33071404387192 -14.484301118605448 -83.43577096710759 -14.484301118605448 -83.43577096710759 -0.394221059001964 5.322066311576068
8.8 -0.3815403166028136 4.885504960516409 -14.783783631838883 -83.8717655768766 -14.783783631838883 -83.8717655768766 -0.38237326168166774 4.8767063313960435
8.9 -0.37023620068333063 4.44428047933101 -15.090985498811293 -84.30223344657374 -15.090985498811293 -84.30223344657374 -0.37107586273805215 4.4353310241286605
9.0 -0.3594643387082277 4.006924192406121 -15.406439650532466 -84.7271615307813 -15.406439650532466 -84.7271615307813 -0.36031086515158606 3.9978239657273815
9.1 -0.3492076101353524 3.5733232052677972 -15.730731811843665 -85.14651447867334 -15.730731811843665 -85.14651447867334 -0.35006114667266003 3.564072245970197
9.2 -0.33944972255490985 3.1433680160870727 -16.064507748457796 -85.56023153268858 -16.064507748457796 -85.56023153268858 -0.34031041332486495 3.1339663476928385
9.3 -0.3301751680308567 2.7169523987569075 -16.40848180809012 -85.96822271730386 -16.40848180809012 -85.96822271730386 -0.33104315573685905 2.7074000298796173
9.4 -0.32136918208313997 2.293973289762626 -16.76344704242943 -86.37036413213804 -16.76344704242943 -86.37036413213804 -0.32224460811556666 2.2842702145486444
9.5 -0.3130177051336831 1.8743306788045606 -17.13028727340976 -86.76649210546499 -17.13028727340976 -86.76649210546499 -0.3139007096843973 1.864476877369265
9.6 -0.30510734625570957 1.4579275030756198 -17.509991569122537 -87.15639588495561 -17.509991569122533 -87.15639588495561 -0.30599806842412686 1.447922941949283
9.7 -0.29762534907222143 1.0446695451324257 -17.903671729679267 -87.53980843235769 -17.903671729679267 -87.53980843235769 -0.2985239269651366 1.0345141776927305
9.8 -0.290559559666532 0.6344653342678243 -18.312583565874757 -87.91639473533341 -18.312583565874757 -87.91639473533341 -0.2914661304897804 0.6241591011736866
9.9 -0.28389839637185643 0.22722605130012985 -18.73815300136075 -88.28573683209395 -18.73815300136075 -88.28573683209395 -0.28481309651747033 0.21676888090437849
10.0 -0.2776308213208929 -0.1771345633114757 -19.182008371880134 -88.64731443103037 -19.182008371880134 -88.64731443103037 -0.2785537864478623 -0.18774275455529052
10.1 -0.2717463136413769 -0.5787002981194053 -19.646020773671548 -89.00047955101074 -19.646020773671548 -89.00047955101074 -0.272677678751995 -0.5894596052686625
10.2 -0.2662348441939313 -0.9775525561976438 -20.132354993084537 -89.34442292926273 -20.132354993084537 -89.34442292926273 -0.26717474370594857 -0.9884630854485876
10.3 -0.26108685175403984 -1.373770437607122 -20.643534529505068 -89.67812891766155 -20.643534529505065 -89.67812891766155 -0.2620354195694793 -1.3848323059380767
10.4 -0.25629322054799764 -1.7674308189046044 -21.182525663641623 -90.00031400534262 -21.182525663641623 -90.00031400534262 -0.25725059011934126 -1.7786441537437225
10.5 -0.25184525905918065 -2.158608429801634 -21.752847677881583 -90.30934160687863 -21.752847677881583 -90.30934160687863 -0.25281156345223554 -2.1699733686991816
10.6 -0.24773468002289545 -2.547375927043692 -22.35871963404813 -90.60310171455122 -22.35871963404812 -90.60310171455122 -0.2487100519796656 -2.5588926173755278
10.7 -0.24395358154093527 -2.9338039656221855 -23.00525928373753 -90.87883729360603 -23.00525928373753 -90.87883729360603 -0.2449381535398542 -2.9454725643038677
10.8 -0.2404944292439546 -3.317961267405354 -23.698758015576793 -91.13288777150173 -23.69875801557679 -91.13288777150173 -0.24148833356065783 -3.3297819406179365
10.9 -0.23735003943931549 -3.699914687257658 -24.44706957945176 -91.36029948621227 -24.44706957945176 -91.36029948621227 -0.2383534082064106 -3.7118876101993123
11.0 -0.23451356318526623 -4.07972927676837 -25.260174132945494 -91.55421505182228 -25.260174132945494 -91.55421505182228 -0.23552652845323205 -4.091854633405022
11.1 -0.23197847123441184 -4.457468345637193 -26.151021799317075 -91.70488010686546 -26.151021799317075 -91.70488010686546 -0.23300116503244916 -4.469746328474319
11.2 -0.22973853979644052 -4.833193520827621 -27.13683999850071 -91.79795542319549 -27.13683999850071 -91.79795542319549 -0.23077109419535258 -4.845624330686403
11.3 -0.22778783707040995 -5.206964803552933 -28.241247748085208 -91.81149354319989 -28.241247748085204 -91.81149354318987 -0.2288303842463399 -5.219548649358939
11.4 -0.22612071050098803 -5.5788406241805895 -29.497857328353682 -91.71016196917576 -29.497857328353682 -91.71016196917576 -0.22717338280143842 -5.591577722750158
11.5 -0.22473177471822442 -5.94887789512384 -30.956819828233677 -91.43327050006799 -30.956819828233677 -91.43327050006799 -0.225794704729937 -5.96176847096042
11.6 -0.22361590011822563 -6.317132061806486 -32.697749450947484 -90.86718940491967 -32.69774945094749 -90.86718940491967 -0.22468922073742975 -6.3301763468920385
11.7 -0.22276820205087006 -6.6836571517505226 -34.8582142218428 -89.77196805097405 -34.8582142218428 -89.77196805097405 -0.22385204655646684 -6.696855385343298
11.8 -0.2221840305768692 -7.048505821888648 -37.70691755807357 -87.54059230653861 -37.70691755807357 -87.54059230654863 -0.2232785327061929 -7.06185825030347
11.9 -0.22185896076413952 -7.411729404126456 -41.87790615681118 -82.0897591344208 -41.87790615682118 -82.0897591344208 -0.22296425479183787 -7.4252362805227845
12.0 -0.22178878349117748 -7.7733779492621915 -49.25641184137586 -60.035835061525106 -49.25641184137586 -60.035835061525106 -0.22290500431100688 -7.787039533411166
12.1 -0.22196949672980273 -8.133500269291003 -50.16412232642825 39.52133224895804 -50.16412232642825 39.521332248958046 -0.2230967799400852 -8.147316827334732
12.2 -0.22239729728050356 -8.492143978174564 -42.41325734600126 65.6161018519022 -42.41325734600125 65.61610185191219 -0.2235357792725219 -8.506115782373861
12.3 -0.22306857293508758 -8.849355531130001 -38.116179755132194 71.60639503020342 -38.116179755132194 71.60639503020342 -0.22421839098509272 -8.863482859588876
12.4 -0.22397989504246582 -9.205180262487023 -35.23327474846489 74.00294170002759 -35.233274748464886 74.0029417000276 -0.2251411874074413 -9.219463398859112
12.5 -0.22512801145736566 -9.559662422171165 -33.073289167352264 75.17575668220665 -33.07328916735226 75.17575668220665 -0.2263009174732794 -9.574101655345453
12.6 -0.22650983984830086 -9.912845210875137 -31.349300467188847 75.79044686659346 -31.349300467188847 75.79044686659344 -0.22769450003290354 -9.927440834629161
12.7 -0.22812246134839215 -10.264770813949148 -29.916343113273683 76.10490827852581 -29.916343113273683 76.10490827852581 -0.22931901750671607 -10.279523126574022
12.8 -0.22996311452809376 -10.615480434051172 -28.691262654513224 76.23973437125956 -28.691262654513224 76.23973437125956 -0.2311717098614009 -10.630389737981682
12.9 -0.23202918967479846 -10.965014322696078 -27.622009433274457 76.25877849647064 -27.622009433274457 76.25877849647064 -0.23324996889297772 -10.980080924022205
13.0 -0.23431822336136032 -11.313411810542643 -26.6738651933482 76.19898413095598 -26.6738651933482 76.19898413096598 -0.23555133279824084 -11.32863601857574
13.1 -0.23682789328941395 -11.660711336714321 -25.822525152272505 76.08319580572415 -25.822525152272505 76.08319580572415 -0.23807348102081088 -11.676093463458336
13.2 -0.23955601339301985 -12.00695047699278 -25.050315584236213 75.92629084464456 -25.050315584236213 75.92629084464456 -0.2408142293579693 -12.022490836590768
13.3 -0.24250052918822454 -12.352165971052099 -24.343984570752575 75.73836836143629 -24.343984570752575 75.73836836143629 -0.24377152531280305 -12.367864879188458
13.4 -0.2456595133579758 -12.696393748663713 -23.693341535433117 75.52652063931593 -23.693341535433113 75.52652063931595 -0.24694344368091015 -12.71225152194237
13.5 -0.24903116155744862 -13.039668955051914 -23.090382369351502 75.29587119046488 -23.090382369351502 75.2958711904649 -0.2503281823586939 -13.055685910240959
13.6 -0.2526137884316929 -13.382025975220051 -22.52870611041756 75.05021072812569 -22.528706110417556 75.05021072812569 -0.2539240583619021 -13.398202428553006
13.7 -0.2564058238326051 -13.723498457557227 -22.00311391338139 74.79240169620799 -22.00311391338139 74.79240169620799 -0.25772950404515 -13.739834723931471
13.8 -0.2604058092262538 -14.064119336505627 -21.509325994327607 74.52464398066365 -21.509325994327607 74.52464398066365 -0.2617430635096858 -14.080615728578305
13.9 -0.26461239428148325 -14.40392085442834 -21.043777229389594 74.24865436052113 -21.043777229389597 74.24865436052113 -0.2659633891929824 -14.420577681760118
14.0 -0.26902433362975187 -14.742934582807694 -20.603466568213964 73.96579068573952 -20.603466568213964 73.96579068573952 -0.2703892386299164 -14.759752150824848
