! Created with skrf 1.12.0 (http://scikit-rf.org).
# GHz S DB R 50.0 
!freq dBS11 angS11 dBS21 angS21 dBS12 angS12 dBS22 angS22
0.01 -27.320937156009116 3.4519494212879813 -0.38149657100309486 -0.18045929593396948 -0.3814965710030959 -0.18045929593166943 -27.320903196755886 3.451656627471666
0.02 -27.270468377510152 6.876452465566503 -0.3816779970052264 -0.36089851301229103 -0.38167799700522337 -0.36089851301109105 -27.270434125086503 6.8758681143540095
0.1 -25.9001037848892 30.78195960431141 -0.3874038535598006 -1.8015182261421525 -0.3874038535598026 -1.8015182261411522 -25.900043833920513 30.778903467928675
0.2 -23.215872506157048 48.863415161440635 -0.40445554212883617 -3.586666540671619 -0.4044555421289352 -3.586666540670619 -23.21587779130482 48.85581253960029
0.3 -20.712101850007357 58.028824640748006 -0.43079788022681353 -5.34721233269298 -0.43079788022681653 -5.347212332691983 -20.712683028029492 58.0164099002361
0.4 -18.617973731982524 62.710650643847 -0.46489644542149106 -7.0826047746745635 -0.46489644542149106 -7.0826047746745635 -18.61952253865634 62.696578423534696
0.5 -16.877432125550243 65.06884653281791 -0.5058836082746335 -8.795092874303746 -0.5058836082746345 -8.795092874303744 -16.87984393827094 65.05695563965783
0.6 -15.411762247580743 66.1276227800663 -0.5533580956231606 -10.486608714698615 -0.5533580956231606 -10.486608714698615 -15.414640800830304 66.11979658438364
0.7 -14.158382763909634 66.40986945382178 -0.6071290170746519 -12.158029731732857 -0.6071290170746508 -12.158029731732857 -14.161362507659643 66.40601419540826
0.8 -13.071390532685339 66.20330932090725 -0.6670706120374337 -13.809346078680168 -0.6670706120375305 -13.809346078680171 -13.074257029919735 66.20246211585838
0.9 -12.11731439946313 65.67666647981432 -0.7330559740225862 -15.439981516961883 -0.7330559740225862 -15.439981516961883 -12.119980442024547 65.67778989787958
1.0 -11.271420830963002 64.93427668730538 -0.8049327972989929 -17.049072808566034 -0.8049327972989951 -17.049072808566034 -11.273872192270291 64.9365564084625
1.1 -10.515090034277879 64.04360910819992 -0.8825199147754169 -18.635665511431633 -0.8825199147753177 -18.635665511431636 -10.517345315989733 64.04648848347432
1.2 -9.834029700575277 63.04998077446548 -0.9656123072908376 -20.19883276524619 -0.9656123072908354 -20.198832765236183 -9.836118045247586 63.053108659249034
1.3 -9.217062533275627 61.98482681804389 -1.053988292034572 -21.73773902154268 -1.053988292034571 -21.737739021542676 -9.219013158874583 61.98799452700976
1.4 -8.655294858346402 60.870554668260475 -1.147416274816829 -23.25166935358281 -1.147416274816828 -23.25166935358281 -8.657132980918604 60.87364502531569
1.5 -8.141537880648574 59.72350496480843 -1.2456602659175917 -24.740038909831163 -1.2456602659175906 -24.740038909831163 -8.143283716327236 59.72645644034523
1.6 -7.669897958715878 58.55582115545579 -1.348484105373374 -26.20239158821658 -1.348484105373374 -26.202391588216585 -7.671567051229191 58.55860433144508
1.7 -7.2354815030872945 57.376667423355 -1.4556545904447982 -27.638393243746975 -1.455654590444797 -27.63839324374697 -7.237085515748751 57.379270253171995
1.8 -6.834178828349373 56.19304475263181 -1.5669437425421044 -29.04782242233631 -1.5669437425421044 -29.04782242233631 -6.835726406593113 56.1954637007358
1.9 -6.462503276932296 55.01035178372137 -1.682130425099084 -30.430560253659024 -1.682130425099083 -30.430560253659024 -6.464000819722662 55.01258674252112
2.0 -6.117469664285988 53.832779176881765 -1.8010014809089157 -31.78658035824473 -1.801001480908918 -31.78658035824473 -6.118921953479688 53.83483073432945
2.1 -5.796501138221188 52.663592667737035 -1.9233525162452827 -33.115939188084305 -1.9233525162452827 -33.11593918808431 -5.797911824585458 52.66546079135405
2.2 -5.4973568785252445 51.50534003354791 -2.048988425284681 -34.41876698090633 -2.048988425284678 -34.41876698090632 -5.498728842796594 51.507023574280105
2.3 -5.218075297502577 50.36000498605618 -2.1777237224152235 -35.6952593818387 -2.177723722415225 -35.6952593818387 -5.219410910385064 50.361501630036635
2.4 -4.956928921929121 49.22912336297441 -2.3093827308536787 -36.94566972273291 -2.3093827308536787 -36.945669722732916 -4.958230226090152 49.230429805126874
2.5 -4.712388185683885 48.11387209036586 -2.4437996622253513 -38.170301922289646 -2.4437996622253513 -38.170301922289646 -4.713657019556094 48.114984297529986
2.6 -4.483092096380791 47.01513818008959 -2.5808186120060608 -39.36950396041555 -2.5808186120060608 -39.36950396041555 -4.484330175697059 47.016051669649094
2.7 -4.26782426028492 45.93357288376998 -2.7202934889924095 -40.54366188132288 -2.7202934889924113 -40.54366188132289 -4.269033229655966 45.9342829798197
2.8 -4.065493124396836 44.86963466780864 -2.8620878923304587 -41.6931942838574 -2.8620878923304587 -41.6931942838574 -4.066674588141806 44.87013671807156
2.9 -3.8751155674140296 43.82362366667027 -3.0060749464842473 -42.818547263156574 -3.0060749464842473 -42.81854726315657 -3.8762711063704076 43.823913215711556
3.0 -3.6958031723116544 42.79570956520106 -3.152137102420247 -43.920189773130915 -3.152137102420249 -43.92018977313092 -3.69693435142316 42.79578248584985
3.1 -3.526750663079576 41.785954358487814 -3.3001659118349664 -44.998609383305045 -3.300165911834968 -44.998609383305045 -3.527859033138054 41.785806946281625
3.2 -3.367226100943752 40.79433107603032 -3.450061780254257 -46.05430840692503 -3.450061780254257 -46.05430840692503 -3.368313196771201 40.79396011273477
3.3 -3.2165625210777096 39.820739294469725 -3.601733704100228 -47.08780037947386 -3.6017337041002273 -47.08780037947387 -3.2176298577168665 39.82014208643028
3.4 -3.0741507565798223 38.86501806958111 -3.755098996272484 -48.099606867998425 -3.755098996272484 -48.09960686799843 -3.0751998244870116 38.8641924663127
3.5 -2.9394332472219786 37.92695677533572 -3.9100830043140067 -49.090254592639475 -3.910083004314005 -49.090254592639475 -2.9404655071248276 37.92590117279432
3.6 -2.811898670098469 37.00630423060676 -4.066618824852028 -50.06027284212315 -4.066618824852026 -50.06027284212315 -2.812915547902663 37.005017562761715
3.7 -2.691077260243238 36.102776413351094 -4.224647017590948 -51.01019116516617 -4.2246470175909465 -51.01019116516617 -2.6920801422395395 36.10125813511173
3.8 -2.5765367138393236 35.21606300073009 -4.384115321835803 -51.94053732002059 -4.384115321835805 -51.94053732002059 -2.5775269423292264 35.21431306431275
3.9 -2.4678785859962264 34.345832926479446 -4.544978378137561 -52.85183546423556 -4.544978378137563 -52.85183546423556 -2.468857455405515 34.34385175315304
4.0 -2.3647351106426533 33.491739110519525 -4.707197457367355 -53.744604567296186 -4.7071974573673545 -53.74460456729619 -2.3657038641557087 33.48952755897982
4.1 -2.2667663824965505 32.653422487534826 -4.870740199203943 -54.619357028760014 -4.870740199203943 -54.619357028760014 -2.2677262092135484 32.65098181989802
4.2 -2.173657851151544 31.83051543862835 -5.035580361757784 -55.47659748503442 -5.035580361757784 -55.47659748503442 -2.1746098837597954 31.82784728488568
4.3 -2.085118085453538 31.022644712898572 -5.2016975837820345 -56.316821788559245 -5.2016975837820345 -56.31682178855924 -2.086063398402441 31.019751034523896
4.4 -2.000876772971324 30.229433911367245 -5.3690771606801215 -57.140516143501706 -5.369077160680118 -57.14051614350171 -2.001816381142167 30.226316964359754
4.5 -1.9206829248510584 29.450505594379482 -5.537709835345287 -57.9481563830532 -5.537709835345287 -57.9481563830532 -1.9216177826890648 29.447167892393995
4.6 -1.8443032607539742 28.68548306410991 -5.707591604653562 -58.74020737398088 -5.707591604653563 -58.74020737398088 -1.8452342618639173 28.681927341896902
4.7 -1.771520752349437 27.93399186668245 -5.87872354228584 -59.517122534930884 -5.8787235422858375 -59.517122534930884 -1.7724487295146325 27.93022104414997
4.8 -1.7021333068410942 27.195661051313348 -6.051111638449884 -60.279343455854715 -6.0511116384498855 -60.279343455854715 -1.703059032470302 27.19167819851319
4.9 -1.6359525746367982 26.470124219381187 -6.2247666569458815 -61.02729960669447 -6.224766656945882 -61.027299606694456 -1.6368767615886057 26.46593252270089
5.0 -1.5728028673664671 25.757020391369686 -6.399704009945376 -61.761408124359406 -6.399704009945375 -61.761408124359406 -1.5737261701489929 25.752623121032222
5.1 -1.5125201742949086 25.0559947160717 -6.575943650829891 -62.482073667781755 -6.575943650829891 -62.48207366778176 -1.5134431905971812 25.051395195304483
5.2 -1.4549512667115474 24.366699043315787 -6.753509985351829 -63.189688331655965 -6.753509985351829 -63.189688331655965 -1.4558745392501635 24.361900619230155
5.3 -1.3999528811590192 23.688792378447737 -6.9324318014377635 -63.88463161020342 -6.932431801437763 -63.88463161020342 -1.4008768997969625 23.683798394840323
5.4 -1.3473909734957337 23.02194123488248 -7.112742217890088 -64.56727040304173 -7.112742217890089 -64.56727040304173 -1.3483161776090034 23.01675500707929
5.5 -1.2971400367343273 22.365819898502327 -7.294478652343911 -65.23795905575537 -7.29447865234391 -65.23795905575537 -1.2980668177819257 22.360444690326506
5.6 -1.249082476397574 21.720110616309498 -7.477682808824746 -65.89703942857277 -7.477682808824746 -65.89703942857277 -1.2500111806713639 21.71454961931338
5.7 -1.2031080378881922 21.084503720051647 -7.662400685363464 -66.54484098694351 -7.662400685363462 -66.54484098694353 -1.204038969390107 21.078760034863908
5.8 -1.1591132809208289 20.458697694090475 -7.8486826021725955 -67.18168090830792 -7.8486826021725955 -67.18168090830792 -1.1600467043518086 20.452774314148666
5.9 -1.117001096661164 19.842399195743727 -8.036583251025162 -67.8078641998998 -8.036583251025162 -67.8078641998998 -1.1179372404652488 19.836298993192642
6.0 -1.0766802636331836 19.23532303535202 -8.226161766558741 -68.42368382265329 -8.22616176655874 -68.4236838226533 -1.0776193230789914 19.229048749148454
6.1 -1.0380650389011108 18.637192122182345 -8.4174818204085 -69.02942081664285 -8.417481820408499 -69.02942081664285 -1.0390071791600892 18.63074634835609
6.2 -1.0010747813726093 18.047737381709926 -8.610611739210745 -69.62534442384553 -8.610611739210743 -69.62534442384553 -1.002020140565356 18.041122565651754
6.3 -0.9656336043880407 17.46669764910154 -8.805624647695245 -70.21171220399432 -8.805624647695247 -70.21171220399432 -0.966582296573457 17.459916079807982
6.4 -0.9316700550594164 16.893819542942463 -9.002598638337675 -70.78877013970055 -9.002598638337675 -70.78877013969054 -0.9326221731414437 16.886873349047708
6.5 -0.8991168180459764 16.328857322829965 -9.201616969230216 -71.35675272668328 -9.20161696923022 -71.35675272668328 -0.9000724365721585 16.321748470345135
6.6 -0.8679104416926285 15.771572734116427 -9.402768292142326 -71.91588304555376 -9.40276829214233 -71.91588304555374 -0.8688696195314731 15.764303025716204
6.7 -0.8379910846504707 15.22173484230469 -9.606146913036572 -72.46637281072226 -9.606146913036572 -72.46637281072226 -0.8389538675279505 15.214305917971672
6.8 -0.8093022812713047 14.679119859668944 -9.811853087660293 -73.00842239271518 -9.81185308766029 -73.00842239271518 -0.8102687041566352 14.67153319857571
6.9 -0.7817907242299015 14.14351096594372 -10.019993355250813 -73.54222080915967 -10.019993355250815 -73.54222080915966 -0.7827608135600345 14.135767889412955
7.0 -0.7554060629666094 13.614698124944141 -10.230680913816858 -74.06794567993362 -10.230680913816858 -74.06794567993362 -0.7563798387046745 13.60679980033687
7.1 -0.7301007166725584 13.092477898619938 -10.44403604106666 -74.58576314124848 -10.444036041066658 -74.58576314124846 -0.731078194194429 13.084425343962204
7.2 -0.7058297006501896 12.576653259736206 -10.660186565583295 -75.09582771290242 -10.660186565583299 -75.09582771290242 -0.706810892460711 12.568447349014258
7.3 -0.6825504649890115 12.06703340443326 -10.879268393579729 -75.59828211222181 -10.879268393579727 -75.59828211222182 -0.683535382267918 12.05867487327762
7.4 -0.660222744586194 11.563433565318203 -11.101426097445785 -76.09325700745838 -11.101426097445783 -76.09325700745838 -0.6612113985672261 11.554923017156778
7.5 -0.638808419627392 11.065674826270586 -11.32681357318365 -76.58087070214042 -11.326813573183651 -76.5808707021404 -0.6398008228162244 11.057012738591038
7.6 -0.6182713857190323 10.573583939144402 -11.555594774931922 -77.06122874059537 -11.555594774931922 -77.06122874059537 -0.6192675529565641 10.56477066997611
7.7 -0.5985774329303026 10.086993143348563 -11.787944536228645 -77.5344234233125 -11.787944536228645 -77.5344234233125 -0.5995773823093699 10.07802893769433
7.8 -0.5796941330691652 9.605739988417938 -12.024049488953516 -78.00053321885305 -12.024049488953516 -78.00053321885305 -0.5806978867133427 9.596624984658758
7.9 -0.5615907345690112 9.129667160125845 -12.264109092939425 -78.4596220563668 -12.264109092939425 -78.4596220563668 -0.5625983192834543 9.120401396249944
8.0 -0.5442380644175063 8.65862231034881 -12.508336791323543 -78.91173848026271 -12.508336791323543 -78.91173848026271 -0.545249512222375 8.64920572999523
8.1 -0.5276084366050341 8.192457890935358 -12.756961309138084 -79.35691464450277 -12.756961309138084 -79.35691464450277 -0.5286237851609056 8.182890349151306
8.2 -0.5116755666104246 7.731030991732404 -13.010228115950897 -79.79516512003656 -13.010228115950898 -79.79516512003657 -0.512694859547552 7.721312260430545
8.3 -0.4964144914851071 7.274203182905765 -13.268401076705933 -80.2264854830263 -13.268401076705935 -80.22648548302628 -0.4974377786467699 7.264332955964793
8.4 -0.48180149512870246 6.821840361636203 -13.531764319773774 -80.65085064506995 -13.531764319773771 -80.65085064506995 -0.48282883273748584 6.811818259625747
8.5 -0.46781403838086205 6.373812603231356 -13.800624356072241 -81.06821287818208 -13.800624356072241 -81.06821287818208 -0.4688454891407656 6.363638177751533
8.6 -0.45443069358820853 5.929994016688774 -14.075312490107159 -81.4784994766404 -14.075312490107159 -81.4784994766404 -0.45546632672947446 5.919666754292468
8.7 -0.44163108332600975 5.490262604696231 -14.356187571363364 -81.88160998489748 -14.356187571363364 -81.88160998489748 -0.4426709746037294 5.479781930401329
8.8 -0.42939582298493434 5.054500128036382 -14.643639144575932 -82.2774129039868 -14.643639144575932 -82.2774129039868 -0.4304400546387141 5.043865408431073
8.9 -0.4177064669508843 4.6225919743758235 -14.938091069351795 -82.66574176765137 -14.938091069351795 -82.66574176765137 -0.41875512763418776 4.611802520308057
9.0 -0.40654545812947884 4.194427031350452 -15.240005694581624 -83.04639045246478 -15.240005694581624 -83.04639045246478 -0.4075986428163234 4.183482100227732
9.1 -0.3958960805855124 3.769897563902012 -15.549888692182108 -83.41910755118342 -15.549888692182105 -83.41910755118342 -0.39695389046058077 3.758796361604572
9.2 -0.3857424150837147 3.3488990957756952 -15.868294678178644 -83.7835895934294 -15.868294678178644 -83.7835895934294 -0.38680495742216153 3.3376407781941113
9.3 -0.37606929733419814 2.931330295085503 -16.195833779068344 -84.13947283834312 -16.195833779068344 -84.13947283834312 -0.3771366853771231 2.919913969314847
9.4 -0.36686227876012656 2.5170928638671097 -16.533179340053586 -84.48632328575502 -16.53317934005359 -84.48632328575502 -0.36793463159019946 2.505517589066663
9.5 -0.35810758962028266 2.106091431506896 -16.88107702079585 -84.82362444826583 -16.88107702079585 -84.82362444826583 -0.35918503204161134 2.0943562194464316
9.6 -0.34979210432770425 1.6982334519487496 -17.240355588180048 -85.15076228692472 -17.240355588180044 -85.15076228692472 -0.35087476675445345 1.6863372672704064
9.7 -0.34190330882195913 1.2934291045782171 -17.611939799409257 -85.46700652313486 -17.611939799409257 -85.46700652312487 -0.34299132717771563 1.2813708647879793
9.8 -0.3344292698591296 0.8915911986679469 -17.996865878949887 -85.77148727945567 -17.996865878949887 -85.77148727945567 -0.3355227854909682 0.8793697738887708
9.9 -0.32735860609491735 0.4926350812878074 -18.39630023993725 -86.06316564049168 -18.396300239937254 -86.06316564049168 -0.3284577657039578 0.4802492937824964
10.0 -0.320680460846255 0.09647854856079195 -18.811562298991568 -86.3407962176271 -18.811562298991568 -86.34079621762712 -0.3217854164359717 0.08392717205991468
10.1 -0.31438447642165723 -0.2969582398325027 -19.24415250336432 -86.60287907882613 -19.24415250336432 -86.60287907882612 -0.31549538526631565 -0.3096764809823634
10.2 -0.30846076992239807 -0.6877528430143852 -19.69578706198509 -86.84759736078814 -19.695787061985087 -86.84759736077817 -0.30957779455622003 -0.7006392748616165
10.3 -0.30289991042041153 -1.0759806182367435 -20.16844139286871 -87.07273534885802 -20.16844139286871 -87.07273534885802 -0.30402321864834886 -1.0890366183761022
10.4 -0.297692897426462 -1.4617147972803888 -20.66440503792289 -87.27556952304059 -20.664405037922894 -87.27556952304059 -0.29882266235694566 -1.4749417961206146
10.5 -0.29283114056829035 -1.8450265600224058 -21.186351859786072 -87.45272158975945 -21.186351859786075 -87.45272158975945 -0.2939675406687327 -1.8584260421627945
10.6 -0.2883064404040293 -2.2259851052810586 -21.737430893695787 -87.59995711746969 -21.737430893695784 -87.59995711746969 -0.2894496595781284 -2.2395586109697523
10.7 -0.28411097029985966 -2.6046577190275264 -22.32138555219729 -87.71190481460394 -22.32138555219729 -87.71190481460394 -0.28526119798781474 -2.6184068456952407
10.8 -0.28023725930767424 -2.9811098400638327 -22.942712420632574 -87.78165751313229 -22.942712420632574 -87.78165751313229 -0.28139469060850486 -2.9950362439068323
10.9 -0.27667817598312583 -3.355405123249997 -23.606876392319638 -87.80019250892478 -23.606876392319638 -87.80019250892478 -0.27784301179781723 -3.3695105208704663
11.0 -0.2734269130841715 -3.7276055003912187 -24.320607683592183 -87.75550843431732 -24.320607683592183 -87.75550843431732 -0.2745993602805399 -3.741891670455174
11.1 -0.2704769731003016 -4.097771238845878 -25.09232067213953 -87.63130332312 -25.09232067213953 -87.63130332310999 -0.27165724469816704 -4.112240023769747
11.2 -0.26782215456199815 -4.465960997956183 -25.932718802576836 -87.40488324089817 -25.932718802576836 -87.40488324089817 -0.2690104699378374 -4.4806143056092145
11.3 -0.26545653908373035 -4.832231883382237 -26.855692119635695 -87.04372641736593 -26.855692119635695 -87.04372641735591 -0.2666531241942945 -4.847071688780926
11.4 -0.26337447909794615 -5.196639499410433 -27.879690186304845 -86.49958226195159 -27.879690186304845 -86.49958226194158 -0.2645795667224192 -5.211667846415088
11.5 -0.26157058624005064 -5.559237999317968 -29.029894945411307 -85.69778555993557 -29.0298949454113 -85.69778555993557 -0.26278441623868837 -5.5744570023186215
11.6 -0.2600397203453133 -5.920080133871376 -30.341788916671653 -84.51662544104005 -30.341788916671653 -84.51662544103006 -0.2612625399355794 -5.935491979446215
11.7 -0.25877697902398256 -6.279217298016919 -31.867230278133604 -82.74424768446052 -31.867230278133604 -82.74424768445054 -0.26000904307156447 -6.294824246579404
11.8 -0.25777768778125354 -6.636699575849747 -33.68501815513778 -79.97933294420912 -33.68501815513778 -79.97933294420912 -0.259019259105733 -6.652503963259625
11.9 -0.25703739064978154 -6.992575783914674 -35.918247114449755 -75.37239908590941 -35.918247114449755 -75.37239908589939 -0.25828874034460964 -7.008580023060088
12.0 -0.2565518413071733 -7.346893512901534 -38.74783051175226 -66.84977701459286 -38.74783051174226 -66.84977701457287 -0.2578132490726503 -7.363100095248399
12.1 -0.25631699465117974 -7.699699167812934 -42.247148854357626 -48.64022932202682 -42.247148854357626 -48.64022932199682 -0.25758874913943147 -7.716110664912839
12.2 -0.2563289988065779 -8.051038006639407 -44.7194710494704 -9.940527622363513 -44.7194710494704 -9.940527622364517 -0.257611397977989 -8.067657071601188
12.3 -0.256584187539559 -8.400954177619788 -42.59307730927019 30.415751567469307 -42.5930773092702 30.415751567449316 -0.2578775390303334 -8.417783546542067
12.4 -0.25707907305849365 -8.749490755128862 -39.107993441054624 49.93829893723678 -39.107993441054624 49.93829893721679 -0.2583836945576245 -8.766533248486704
12.5 -0.2578103391784389 -9.09668977425106 -36.265267683072544 58.976182873104 -36.265267683072544 58.976182873094004 -0.25912655881456104 -9.113948298245012
12.6 -0.25877483483100006 -9.442592264086265 -34.0353805048973 63.81471245999223 -34.0353805048973 63.81471245999223 -0.26010299156713695 -9.460069811946052
12.7 -0.2599695678997085 -9.787238279838641 -32.23398064694025 66.70494680421388 -32.23398064694025 66.70494680421388 -0.2613100119372989 -9.804937933088643
12.8 -0.26139169936465395 -10.130666933739358 -30.73330861778443 68.55710440266665 -30.73330861778443 68.55710440266665 -0.2627447925537476 -10.148591863416268
12.9 -0.2630385377393218 -10.472916424841268 -29.45162203369822 69.79659977178675 -29.451622033698225 69.79659977178675 -0.26440465399633384 -10.491069892678038
13.0 -0.264907533783768 -10.814024067713397 -28.335296119449342 70.64618250957103 -28.335296119449346 70.64618250957102 -0.2662870595157788 -10.832409427268852
13.1 -0.2669962754805339 -11.154026320127297 -27.347761170468875 71.23302976947855 -27.347761170468875 71.23302976947856 -0.2683896100154616 -11.172647017914558
13.2 -0.26930248325954653 -11.492958809724083 -26.463141065825372 71.6347856778613 -26.463141065825372 71.6347856778613 -0.2707100392818378 -11.511818386242252
13.3 -0.27182400545777907 -11.830856359689342 -25.66252694036915 71.90143748397378 -25.66252694036915 71.90143748397378 -0.27324620944952127 -11.849958450478479
13.4 -0.2745588140042102 -12.167753013558572 -24.9317151733467 72.06657858134234 -24.9317151733467 72.06657858134234 -0.27599610669083824 -12.187101350188497
13.5 -0.2775050003150321 -12.503682059073482 -24.25978244006512 72.15359779166353 -24.25978244006512 72.15359779166353 -0.27895783711598143 -12.523280470086497
13.6 -0.2806607713922688 -12.838676051208768 -23.63815669824671 72.17926841246174 -23.638156698246714 72.17926841246172 -0.2821296228757098 -12.858528463086751
13.7 -0.2840244461124974 -13.172766834369625 -23.059992579473693 72.15592531860617 -23.059992579473693 72.15592531860615 -0.28550979845451746 -13.19287727240568
13.8 -0.2875944516983878 -13.505985563779806 -22.519739833232933 72.09283705298733 -22.519739833232933 72.09283705298733 -0.2890968071452573 -13.526358152974856
13.9 -0.29136932036183194 -13.838362726090294 -22.012837872870804 71.99709944026266 -22.012837872870804 71.99709944026267 -0.2928891976971276 -13.859001692014887
14.0 -0.29534768611259543 -14.169928159318438 -21.53549489997814 71.87423440594168 -21.53549489997814 71.87423440594168 -0.296885621127388 -14.190837828930198
