! Created with skrf 1.12.0 (http://scikit-rf.org).
# GHz S DB R 50.0 
!freq dBS11 angS11 dBS21 angS21 dBS12 angS12 dBS22 angS22
0.01 -29.422895569973395 4.8540359701961195 -0.29752830789728674 -0.19494756255455903 -0.2975283078973855 -0.194947562550359 -29.422890338614724 4.854117039096257
0.02 -29.300480707008983 9.433862066170883 -0.29877326235833507 -0.38390171628617714 -0.29877326235833607 -0.38390171628407727 -29.30045493716588 9.434036431916754
0.1 -27.101238489226013 37.649728211546524 -0.309532163422136 -1.8494236481988446 -0.309532163422136 -1.8494236481978457 -27.10092892642168 37.64770690303517
0.2 -23.715147214231337 55.114245905475066 -0.33044102992133145 -3.6492211714614995 -0.3304410299214306 -3.6492211714614986 -23.71507439997543 55.107964347097735
0.3 -20.923629404274877 62.8057541565493 -0.36038126638666756 -5.418798092691492 -0.36038126638666756 -5.418798092691492 -20.924062428223046 62.797255268267875
0.4 -18.71277781513353 66.34910591055318 -0.3980649200582361 -7.156459075169255 -0.3980649200582361 -7.156459075169255 -18.713735873082754 66.34023073195036
0.5 -16.924134816872535 67.91030572086642 -0.4423238406018106 -8.864593133478076 -0.442323840601911 -8.86459313347808 -16.925518976921456 67.90233271827353
0.6 -15.439800877141085 68.41474800297638 -0.4924858763210333 -10.546556317546242 -0.49248587632113233 -10.546556317546244 -15.44147609473159 68.40830175532155
0.7 -14.18074955683679 68.30838450758368 -0.5482074655669771 -12.205065940914327 -0.5482074655670787 -12.205065940914329 -14.182596255584405 68.30362771243018
0.8 -13.093544700293924 67.82685025737193 -0.6093118765444521 -13.841929807101561 -0.6093118765445524 -13.841929807101563 -13.095473017887825 67.82370544113431
0.9 -12.141084518624854 67.10381349473796 -0.6756962680520596 -15.45819110040985 -0.6756962680520596 -15.458191100409852 -12.143031426124956 67.10210194068631
1.0 -11.296869878246419 66.2196568382286 -0.7472844918732792 -17.0543315891242 -0.7472844918733822 -17.054331589124196 -11.298792748386504 66.21916785502403
1.1 -10.541459187891679 65.2252203390744 -0.8240038860690814 -18.630443483483337 -0.8240038860691801 -18.630443483483337 -10.543330248035499 65.22574314733589
1.2 -9.860230895526131 64.15412827473385 -0.905774233765138 -20.186360537336988 -0.9057742337652375 -20.18636053733699 -9.862033127445564 64.15546660816183
1.3 -9.241937098283808 63.02951890795287 -0.9925030921427319 -21.721755513077312 -0.9925030921428335 -21.72175551307731 -9.243661236215878 63.031497570248
1.4 -8.677746167715425 61.86787950959585 -1.0840845752716626 -23.23621193800324 -1.0840845752716637 -23.23621193800324 -8.67938844784957 61.87034674972479
1.5 -8.160594603737662 60.68131707710207 -1.1804000174447717 -24.729276393585483 -1.1804000174447695 -24.72927639358548 -8.162155053406725 60.68414452683179
1.6 -7.684738787754611 59.47895106789395 -1.281319616363469 -26.200496049786278 -1.281319616363468 -26.200496049786278 -7.686219931549787 59.482032218557016
1.7 -7.24543870286613 58.26779629729346 -1.3867045255919637 -27.64944502514597 -1.3867045255919621 -27.649445025145965 -7.246844603446496 58.271044176221594
1.8 -6.838730531304311 57.053340345953266 -1.4964090836865718 -29.07574231122447 -1.4964090836865707 -29.07574231122447 -6.8400660988582604 57.05668486231188
1.9 -6.461260253538837 55.83993246587645 -1.6102829999606705 -30.479063355831556 -1.6102829999606705 -30.47906335583155 -6.462530766181876 55.843317745116195
2.0 -6.110159873301043 54.631052910371785 -1.7281733980963523 -31.85914690325731 -1.7281733980963512 -31.85914690325731 -6.111370657969422 54.63443481367087
2.1 -5.782953935068883 53.42950440359411 -1.8499266682449806 -33.21579830777693 -1.8499266682449806 -33.215798307776936 -5.784110166403732 53.43284833436051
2.2 -5.477487912552577 52.23755164480523 -1.9753901079362204 -34.5488902465215 -1.9753901079362204 -34.5488902465215 -5.478594495499815 52.240830678433035
2.3 -5.191872623207709 51.057025310390586 -2.1044133496258692 -35.858361536645916 -2.1044133496258715 -35.858361536645916 -5.19293413286338 51.060218641733876
2.4 -4.924440548882407 49.88940125766886 -2.2368495827006223 -37.14421459569618 -2.2368495827006205 -37.14421459569617 -4.9254612079259905 49.89249293758757
2.5 -4.6737111161729095 48.7358620385119 -2.3725565832731346 -38.406511957706584 -2.3725565832731346 -38.40651195770659 -4.674694795801389 48.73883996039425
2.6 -4.438362800384839 47.59734553730317 -2.511397567810371 -39.64537216154904 -2.511397567810371 -39.64537216154904 -4.439313035000165 47.60020063211016
2.7 -4.217210484666102 46.474584055265225 -2.6532418877350428 -40.8609652546906 -2.6532418877350445 -40.86096525469058 -4.218130493813159 46.477309656451716
2.8 -4.009186908987181 45.36813617482821 -2.797965582281482 -42.053508098839494 -2.7979655822814835 -42.053508098839494 -4.010079622367379 45.37072751872284
2.9 -3.813327333515355 44.2784130705625 -2.9454518063473385 -43.22325961927535 -2.9454518063483404 -43.22325961927537 -3.8141954165060747 44.280866903531745
3.0 -3.6287567519047137 43.20570047684339 -3.0955911493470745 -44.37051610546384 -3.095591149347072 -44.37051610546384 -3.629602630133191 43.208014745707395
3.1 -3.4546791453120083 42.1501772043413 -3.2482818599717604 -45.49560664255318 -3.2482818599727596 -45.49560664255318 -3.455505027522201 42.152350811493484
3.2 -3.2903683833857484 41.11193087387679 -3.4034299907481342 -46.598888731707895 -3.4034299907481342 -46.5988887317079 -3.291176282283005 41.1139634822882
3.3 -3.135160465153963 40.090971375563186 -3.5609494750415767 -47.68074413992522 -3.5609494750415784 -47.68074413992521 -3.1359522161913995 40.092863252526584
3.4 -2.9884468584386603 39.08724244559909 -3.720762148104078 -48.741575005834584 -3.72076214810408 -48.74157500583458 -2.989224136639119 39.088994336488796
3.5 -2.849668746560456 38.100631667742675 -3.882797722562694 -49.78180021729911 -3.8827977225626924 -49.78180021729911 -2.850433081553284 38.10224469321472
3.6 -2.7183120297711296 37.13097914358486 -4.04699372774175 -50.801852067881676 -4.04699372774175 -50.801852067881676 -2.7190648192319564 37.132454715268445
3.7 -2.5939029587751743 36.17808502821409 -4.2132954211786995 -51.80217319242942 -4.213295421179697 -51.80217319242942 -2.5946454804821957 36.17942477903008
3.8 -2.4760043011710096 35.241716091540134 -4.381655679755738 -52.783213777107505 -4.381655679755736 -52.783213777107505 -2.4767377238406745 35.24292181786652
3.9 -2.3642119599880624 34.321611437964776 -4.552034877020836 -53.745429034909115 -4.552034877021836 -53.74542903490912 -2.364937353069127 34.32268505143156
4.0 -2.258151978133372 33.41748749511272 -4.724400752489535 -54.68927693540178 -4.724400752489535 -54.68927693540178 -2.2588703206819756 33.418430982271204
4.1 -2.157477874091316 32.52904236498455 -4.898728277998433 -55.61521617488404 -4.898728277998431 -55.61521617488404 -2.158190062860133 32.52985775370753
4.2 -2.0618682635898393 31.655959617414915 -5.074999525586294 -56.52370437234787 -5.074999525586294 -56.52370437234788 -2.062575120405596 31.656648948795674
4.3 -1.9710247293464631 30.797911593911333 -5.253203540802839 -57.41519647554531 -5.253203540802839 -57.41519647554531 -1.971727007874327 30.798476899020176
4.4 -1.884669907152026 29.954562281363298 -5.43333622489036 -58.29014336130849 -5.43333622489036 -58.29014336130849 -1.8853682991062155 29.955005562041244
4.5 -1.8025457614382054 29.12556980672506 -5.615400228865197 -59.14899061427651 -5.615400228865197 -59.14899061427651 -1.8032409022833573 29.125893019994685
4.6 -1.7244120275307575 28.310588597870723 -5.799404862217664 -59.9921774684329 -5.799404862217666 -59.9921774684329 -1.725104501731549 28.310793643334662
4.7 -1.650044801148358 27.50927124990468 -5.985366018632461 -60.82013589647255 -5.985366018632458 -60.82013589647255 -1.6507351469973286 27.509359959922506
4.8 -1.5792352584306502 26.721270131775025 -6.173306120971935 -61.63328983225918 -6.173306120971935 -61.63328983225919 -1.5799239724839933 26.72124426383928
4.9 -1.5117884921023248 25.94623876370208 -6.3632540875736385 -62.43205451292948 -6.3632540875736385 -62.43205451292948 -1.512476033261315 25.946099994924744
5.0 -1.4475224512964437 25.183832992628275 -6.555245321833891 -63.21683592734384 -6.555245321833891 -63.21683592734384 -1.448209244543621 25.18358291588847
5.1 -1.3862669741583933 24.433711989619162 -6.749321727008761 -63.98803035875962 -6.74932172700876 -63.98803035875962 -1.38695341398895 24.433352111223535
5.2 -1.327862903764675 23.695539090529337 -6.945531748147157 -64.74602401022838 -6.945531748147157 -64.74602401022838 -1.3285493573098404 23.695070829135965
5.3 -1.272161278978829 22.968982498759214 -7.143930443165355 -65.49119270204442 -7.1439304431653525 -65.49119270204443 -1.272848088869277 22.968407185376435
5.4 -1.2190225929459801 22.253715866942237 -7.34457958515619 -66.22390163113894 -7.344579585156188 -66.22390163113894 -1.2197100799090619 22.253034745813217
5.5 -1.1683161127044226 21.54941877230367 -7.547547798193176 -66.94450518328178 -7.547547798193177 -66.94450518328178 -1.1690045779158402 21.548633002498107
5.6 -1.1199192541540406 20.85577709902493 -7.752910729126324 -67.65334678916903 -7.752910729126324 -67.65334678916903 -1.1206089813806543 20.85488775667853
5.7 -1.0737170072825883 20.17248333919835 -7.960751258116473 -68.35075881650386 -7.960751258116473 -68.35075881650386 -1.0744082648018676 20.171491420141372
5.8 -1.0296014070424033 19.499236822839663 -8.17115975102071 -69.03706249018552 -8.171159751020706 -69.03706249019551 -1.030294449377997 19.498143245675255
5.9 -0.9874710458019214 18.83574388617609 -8.384234357138133 -69.71256783355987 -8.384234357138135 -69.71256783355987 -0.9881661152767273 18.83454949554926
6.0 -0.9472306237063031 18.181717986329126 -8.600081356313314 -70.37757362357412 -8.600081356313316 -70.37757362357412 -0.9479279518334263 18.18042355639735
6.1 -0.9087905336272513 17.53687976960256 -8.818815559984222 -71.03236735336627 -8.818815559984222 -71.03236735336627 -0.9094903423479289 17.535486007638422
6.2 -0.8720664777449685 16.900957099865778 -9.040560771439598 -71.67722519562037 -9.040560771439598 -71.67722519562037 -0.8727689805289385 16.89946464983274
6.3 -0.8369791130679134 16.273685052544547 -9.265450311342414 -72.31241196002658 -9.265450311342413 -72.31241196002658 -0.8376845158878311 16.272094498756164
6.4 -0.8034537234654351 15.654805879330436 -9.493627615521842 -72.93818103848538 -9.493627615521842 -72.93818103848538 -0.8041622256568128 15.653117750013749
6.5 -0.7714199160131491 15.04406894795132 -9.725246913154166 -73.55477433090442 -9.725246913154166 -73.55477433090442 -0.7721317110295838 15.04228371870506
6.6 -0.7408113396554084 14.441230660875545 -9.960473994734848 -74.16242214449612 -9.960473994734848 -74.16242214449612 -0.7415266157311496 14.439348758023405
6.7 -0.7115654243714647 13.846054356342067 -10.199487080791815 -74.76134305870411 -10.199487080791815 -74.76134305870411 -0.712284365098967 13.844076160201718
6.8 -0.6836231391947003 13.258310194809548 -10.442477804082042 -75.35174374714636 -10.442477804082046 -75.35174374715636 -0.6843459240275644 13.256236042737756
6.9 -0.6569287675843105 12.677775033267112 -10.68965232027821 -75.93381874700238 -10.68965232027821 -75.93381874700238 -0.657655572272743 12.675605222581218
7.0 -0.6314296987764627 12.104232289969712 -10.94123256447633 -76.50775016475211 -10.941232564476334 -76.50775016475211 -0.6321606957433007 12.101967080666018
7.1 -0.6070762338649586 11.537471801280859 -11.197457674263987 -77.07370730582441 -11.197457674263989 -77.07370730582441 -0.6078115925295803 11.535111418580032
7.2 -0.5838214054673321 10.977289672655592 -11.458585603492848 -77.63184621310178 -11.458585603492848 -77.63184621310178 -0.584561292523303 10.974834309415494
7.3 -0.5616208099309494 10.423488125196434 -11.724894955557993 -78.18230909688991 -11.724894955557993 -78.18230909688991 -0.5623653895834508 10.42093794404249
7.4 -0.540432451119529 9.875875338967006 -11.99668707013453 -78.72522363534881 -11.99668707013453 -78.72522363535882 -0.5411818852886324 9.873230474343476
7.5 -0.5202165949046413 9.334265294434905 -12.274288404252056 -79.26070211995349 -12.274288404252054 -79.26070211995349 -0.5209710433975685 9.331525854439112
7.6 -0.500935633554606 8.79847761287338 -12.558053256287137 -79.78884041524182 -12.558053256287137 -79.78884041524181 -0.5016952542136857 8.7956436809171
7.7 -0.4825539592838718 8.268337396605173 -12.848366891474372 -80.30971669497744 -12.848366891474372 -80.30971669497744 -0.4833189081118366 8.265409032932341
7.8 -0.4650378462823102 7.743675069829831 -13.145649139876156 -80.82338990789552 -13.145649139876154 -80.82338990789552 -0.46580827755018367 7.740652312877592
7.9 -0.4483553406017185 7.224326220629655 -13.450358552781532 -81.32989791490922 -13.450358552781532 -81.32989791491924 -0.4491314069416651 7.22120908824296
8.0 -0.4324761573254629 6.710131444678419 -13.762997222714288 -81.82925522453527 -13.762997222714288 -81.82925522453527 -0.43325800981108803 6.706919935197123
8.1 -0.41737158449151923 6.200936191093752 -14.084116396250499 -82.32145023433623 -14.084116396250499 -82.32145023433623 -0.4181593727089803 6.197630284312323
8.2 -0.4030143932849667 5.696590610787087 -14.414323039255734 -82.80644186088844 -14.414323039255736 -82.80644186088844 -0.4038082653958913 5.693190268798918
8.3 -0.3893787540484709 5.19694940761092 -14.75428755330205 -83.28415540718345 -14.75428755330205 -83.28415540718345 -0.3901788568476796 5.1934545755512795
8.4 -0.3764401576998011 4.701871692550006 -15.104752892284807 -83.75447747253125 -15.104752892284807 -83.75447747253126 -0.37724663666874914 4.698282299239569
8.5 -0.36417534217318803 4.211220841142068 -15.466545393429652 -84.21724964981482 -15.466545393429648 -84.21724964981482 -0.3649883415303861 4.207536799646065
8.6 -0.35256222353310984 3.7248643542774675 -15.840587722899437 -84.67226067443313 -15.84058772289944 -84.67226067443313 -0.35338188628313916 3.7210855623903387
8.7 -0.34157983143473225 3.242673722498187 -16.22791444936151 -85.11923657786254 -16.22791444936151 -85.11923657786254 -0.3424062994166941 3.238800063155724
8.8 -0.3312082486306351 2.7645242938664123 -16.629690910705076 -85.557828244375 -16.629690910705072 -85.557828244375 -0.3320416625664301 2.760555635499326
8.9 -0.3214285542448101 2.290295145455917 -17.04723624450899 -85.9875955527116 -17.04723624450899 -85.9875955527116 -0.3222690537887541 2.286231342292684
9.0 -0.312222770558508 1.8198689585053276 -17.482051733349863 -86.40798697486069 -17.482051733349863 -86.40798697486069 -0.31307049434757256 1.8157098508272886
9.1 -0.3035738130674347 1.3531318972223714 -17.935856005700558 -86.81831305728969 -17.935856005700554 -86.81831305728969 -0.30442889877378376 1.3488773115839074
9.2 -0.29546544359190685 0.8899734912435151 -18.410629180419075 -87.2177115524094 -18.410629180419075 -87.2177115524094 -0.2963280279765658 0.8856232406608041
9.3 -0.2878822262337284 0.43028652172034676 -18.908668824187934 -87.60510098586025 -18.908668824187934 -87.60510098587024 -0.28875244520358007 0.4258404058333539
9.4 -0.28080948599229805 -0.026033089009890417 -19.432661725563953 -87.97911794790905 -19.432661725563953 -87.97911794790905 -0.2816874746580595 -0.03057528379426484
9.5 -0.27423326986219415 -0.479086384213246 -19.985777166008546 -88.33803106722658 -19.985777166008546 -88.33803106722658 -0.2751191625992466 -0.483724884590802
9.6 -0.26814031025055257 -0.9289714760662754 -20.57178989813844 -88.6796209147241 -20.571789898138437 -88.6796209147241 -0.26903424076217813 -0.9337065217165009
9.7 -0.2625179905627384 -1.375783645545784 -21.195244945246912 -89.00100901991904 -21.195244945246912 -89.00100901991904 -0.2634200919450781 -1.3806154890161026
9.8 -0.25735431281566296 -1.819615438972125 -21.861682512685498 -89.29840897924882 -21.861682512685498 -89.29840897924882 -0.2582647176243192 -1.824544345565174
9.9 -0.25263786714711267 -2.2605567612793536 -22.577951356616182 -89.56675490150242 -22.577951356616182 -89.56675490151243 -0.2535567074666113 -2.2655830089365043
10.0 -0.24835780310148967 -2.6986949660937447 -23.352655853434015 -89.79913044699899 -23.352655853434015 -89.79913044699899 -0.24928521061511524 -2.7038188452721976
10.1 -0.24450380257816126 -3.1341149426988966 -24.19681147412028 -89.98586150830327 -24.19681147412028 -89.98586150830327 -0.24543990863969034 -3.139336756242476
10.2 -0.24106605433601155 -3.566899199972597 -25.124836942866047 -90.11301651496721 -25.124836942866047 -90.11301651496721 -0.2420109900424704 -3.572219262972509
10.3 -0.2380352299596224 -3.9971279473806667 -26.156113714206203 -90.15980880465726 -26.1561137142062 -90.15980880465726 -0.2389891262245147 -4.002546587018437
10.4 -0.2354024611924856 -4.424879173110332 -27.317550681703953 -90.09383491969733 -27.317550681703953 -90.09383491969733 -0.23636544881969437 -4.430396728493227
10.5 -0.23315931855499566 -4.850228719430786 -28.648042223755713 -89.86171223201667 -28.64804222375571 -89.86171223202665 -0.23413152831224654 -4.8558455414049675
10.6 -0.23129779116683472 -5.273250355366558 -30.206772781066405 -89.36895570897235 -30.20677278106641 -89.36895570897235 -0.23227935385970022 -5.278966806320275
10.7 -0.22981026770045074 -5.6940158467674085 -32.090124329735225 -88.43133881041658 -32.090124329735225 -88.43133881041658 -0.23080131424486897 -5.699832300409484
10.8 -0.22868951839666357 -6.112595023856389 -34.470384267141775 -86.63658041548763 -34.470384267141775 -86.63658041549762 -0.229690179890894 -6.118511864983377
10.9 -0.22792867807885436 -6.529055846344858 -37.69943345508253 -82.84331670238517 -37.69943345509253 -82.84331670239517 -0.22893908587431466 -6.5350734705861235
11.0 -0.22752123010486858 -6.943464466186163 -42.63750657024776 -72.4699472831288 -42.63750657024776 -72.46994728314881 -0.22854151587457372 -6.949583279735247
11.1 -0.22746099120147573 -7.355885288057708 -50.059615092538756 -22.273604049320298 -50.05961509255875 -22.2736040493103 -0.22849128700730945 -7.362105707382337
11.2 -0.2277420971289955 -7.766381027644316 -44.58934651668541 51.48414522439114 -44.58934651668541 51.48414522444112 -0.2287825354857636 -7.772703479187348
11.3 -0.22835898912671881 -8.17501276779449 -38.928589748744145 66.46543246762046 -38.92858974874415 66.46543246763044 -0.22940970306436365 -8.181437687653244
11.4 -0.22930640109423903 -8.581840012635569 -35.40029281385614 71.30761543568562 -35.40029281385614 71.30761543569561 -0.23036752421675205 -8.588367846235856
11.5 -0.2305793474661299 -8.986920739708504 -32.883010139785895 73.49644795062378 -32.883010139785895 73.49644795063378 -0.2316510140068132 -8.993551941462774
11.6 -0.23217311173812952 -9.390311450201104 -30.934571056540076 74.63079581369487 -30.93457105654008 74.63079581370486 -0.23325545661239874 -9.397046483161086
11.7 -0.23408323561076733 -9.79206721733961 -29.34828052702663 75.24322101124287 -29.34828052702663 75.24322101125288 -0.2351763944645974 -9.798906552842924
11.8 -0.23630550871183675 -10.192241733015473 -28.01216344730422 75.56029104780484 -28.01216344730422 75.56029104780484 -0.2374096179668304 -10.199185850329552
11.9 -0.23883595886820233 -10.590887352699198 -26.859010318491872 75.69444097310773 -26.859010318491872 75.69444097311774 -0.23995115576253118 -10.597936738650041
12.0 -0.24167084289336244 -10.9880551387131 -25.845393564638925 75.70771560943331 -25.845393564638925 75.7077156094433 -0.24279726551963132 -10.995210287359305
12.1 -0.24480663786419327 -11.383794901909994 -24.941656940025183 75.63712122407098 -24.941656940025183 75.63712122408099 -0.2459444252026259 -11.391056314184414
12.2 -0.24824003285949942 -11.77815524187945 -24.126660249221324 75.50608195302902 -24.126660249221324 75.50608195303903 -0.24938932480788656 -11.785523425227222
12.3 -0.25196792113310784 -12.171183585558888 -23.384808649309555 75.33013724067378 -23.384808649309555 75.33013724067378 -0.25312885853315115 -12.178659053647028
12.4 -0.2559873927011268 -12.5629262245761 -22.704271741784407 75.11999493639748 -22.704271741784407 75.11999493639748 -0.2571601173614613 -12.57050949696539
12.5 -0.26029572731815204 -12.953428351133285 -22.07586369162381 74.88326847417413 -22.07586369162381 74.88326847417413 -0.26148038203452023 -12.961119953002946
12.6 -0.2648903878233171 -13.342734092592531 -21.49231057615037 74.62551523259425 -21.492310576150366 74.62551523260426 -0.2660871163957784 -13.350534554468133
12.7 -0.26976901383582524 -13.730886544812556 -20.947754814322757 74.35088332212784 -20.947754814322757 74.35088332212784 -0.2709779610843468 -13.738796402327864
12.8 -0.2749294157822168 -14.117927804266829 -20.43741027725737 74.06252883216597 -20.437410277257374 74.06252883216595 -0.27615072755970793 -14.125947597940078
12.9 -0.28036956923621525 -14.503898998952856 -19.95731628760013 73.76289324089107 -19.95731628760013 73.76289324089107 -0.28160339244130395 -14.51202927403804
13.0 -0.2860876095580409 -14.888840318192619 -19.504158347028405 73.45389275531599 -19.5041583470284 73.45389275531599 -0.2873340921468458 -14.897081624516533
13.1 -0.29208182681469236 -15.272791041354221 -19.07513500039319 73.13705055239144 -19.07513500039319 73.13705055239144 -0.29334111781317757 -15.281143933209723
13.2 -0.29835066096903534 -15.655789565494521 -18.66785729210138 72.81359104239249 -18.66785729210138 72.81359104239249 -0.2996229104858087 -15.664254601560817
13.3 -0.30489269732323365 -16.037873431992878 -18.28027169103819 72.48450829355369 -18.28027169103819 72.48450829355369 -0.3061780565640131 -16.046451175303453
13.4 -0.31170666220311166 -16.41907935222589 -17.910600206189752 72.15061651704303 -17.91060020618975 72.15061651704305 -0.31300528348819195 -16.427770370164716
13.5 -0.3187914188738586 -16.79944323226306 -17.55729328991581 71.81258786732477 -17.55729328991581 71.81258786732477 -0.32010345565764287 -16.80824809659995
13.6 -0.3261459636719591 -17.179000196663562 -17.21899238744259 71.47098112504096 -17.21899238744259 71.47098112504096 -0.3274715705679277 -17.18791948363924
13.7 -0.3337694223468177 -17.557784611433675 -16.894499855565797 71.12626372719205 -16.894499855565797 71.12626372720206 -0.3351087551557996 -17.566818901865478
13.8 -0.3416610465989092 -17.935830106075418 -16.582754577053688 70.77882887674626 -16.582754577053684 70.77882887675625 -0.3430142623440099 -17.94497998547428
13.9 -0.34982021080662035 -18.313169594865744 -16.282812024030335 70.42900896660773 -16.282812024020327 70.42900896660774 -0.35118746777339666 -18.322435653625483
14.0 -0.3582464089316923 -18.689835297296923 -15.993827830868936 70.07708621127384 -15.993827830868936 70.07708621127382 -0.35962786671640323 -18.69921813087636
