! Created with skrf 1.12.0 (http://scikit-rf.org).
# GHz S DB R 50.0 
!freq dBS11 angS11 dBS21 angS21 dBS12 angS12 dBS22 angS22
0.01 -29.421345605207687 4.859668537473699 -0.2975793313084362 -0.19502278852087676 -0.297579331308537 -0.19502278851367677 -29.421340125390717 4.8597615301614425
0.02 -29.298552544811077 9.443449579284811 -0.2988304909967399 -0.3840086205558326 -0.2988304909967419 -0.3840086205522328 -29.29852599645885 9.443614819334252
0.1 -27.096462822470507 37.66238108855023 -0.3096095338121223 -1.8493226564587855 -0.30960953381221923 -1.8493226564577854 -27.096216488998394 37.66099535375584
0.2 -23.708903131519975 55.12469660588333 -0.33045767293245665 -3.6493680892037843 -0.3304576729325569 -3.649368089202785 -23.708589335695642 55.11947114978682
0.3 -20.917049735927748 62.80859560718087 -0.36038805327834184 -5.419217844715442 -0.3603880532784423 -5.419217844715443 -20.917133471500065 62.79867807081389
0.4 -18.70661301353643 66.34785939938278 -0.3980553000293954 -7.157029724525856 -0.3980553000294933 -7.157029724525856 -18.707521374647246 66.3357828356081
0.5 -16.91845637507675 67.90793485708643 -0.4422870147907131 -8.865311833372468 -0.4422870147907131 -8.865311833372468 -16.92016840323011 67.89718034857343
0.6 -15.434523157438424 68.41272270858495 -0.4924170240608538 -10.547429026848956 -0.4924170240609528 -10.547429026848958 -15.436734426029075 68.40529928249113
0.7 -14.17577751333933 68.30737024966622 -0.5481021070005601 -12.206083026952458 -0.5481021070005611 -12.206083026952461 -14.178162054242705 68.30359316252473
0.8 -13.088801123381783 67.82711086870847 -0.6091644718115481 -13.843082729972771 -0.6091644718115481 -13.843082729972771 -13.091135997667871 67.82633953704496
0.9 -12.136513265913145 67.10540424358781 -0.6755019274350653 -15.459478592636197 -0.6755019274350653 -15.459478592636195 -12.138689250492714 67.10673107270496
1.0 -11.292434189858886 66.22252878327069 -0.7470402770102981 -17.05575249130179 -0.7470402770102981 -17.05575249130179 -11.294421853229721 66.2251516619676
1.1 -10.537138445533241 65.22928246517061 -0.823708779086173 -18.631986861565654 -0.8237087790862747 -18.631986861565657 -10.538950858781135 65.23262664528899
1.2 -9.85601689420853 64.15928427507266 -0.9054282818960482 -20.187999342255956 -0.9054282818960493 -20.187999342255956 -9.857683148835328 64.16299325568599
1.3 -9.237830494061777 63.03568711507339 -0.9921063723103564 -21.723444708586264 -0.9921063723103564 -21.72344470858626 -9.239380892407382 63.03956692009143
1.4 -8.673753473585348 61.87500187582997 -1.0836363374507327 -23.237889702793407 -1.0836363374507316 -23.237889702793407 -8.675213077897302 61.87896184831926
1.5 -8.15672585396758 60.68936156240142 -1.1798981074246069 -24.73086676235068 -1.1798981074246069 -24.730866762350676 -8.158112884001227 60.693367935092205
1.6 -7.6810058309288145 59.48791045646559 -1.2807601446750785 -26.201911867776516 -1.2807601446750785 -26.201911867776516 -7.682332380094684 59.491955419419135
1.7 -7.241854012631601 58.277685360261096 -1.386081708563064 -27.650590646742245 -1.386081708563064 -27.650590646742245 -7.243127572525666 58.28176900877084
1.8 -6.835306410175813 57.06419245924271 -1.4957151877039911 -29.076515852251838 -1.4957151877039911 -29.076515852251838 -6.836531432374191 57.06831376770441
1.9 -6.458008319765885 55.85179626225276 -1.6095083399165746 -30.479358507765408 -1.6095083399165746 -30.479358507765408 -6.459187494768926 55.855949666505495
2.0 -6.1070907445593825 54.64398922708135 -1.7273063605772698 -31.85885439339409 -1.7273063605772685 -31.858854393394093 -6.1082259192185475 54.64816430303805
2.1 -5.7800770460473005 53.44358361323638 -1.84895374439105 -33.214807099578906 -1.84895374439105 -33.21480709957891 -5.781169812090638 53.44776620489787
2.2 -5.4748114224778455 52.25285137081176 -1.9742959296931422 -34.54708855646533 -1.9742959296931422 -34.54708855646533 -5.475863448060647 52.25702518709222
2.3 -5.1894033835115 51.073628492069275 -2.1031807276842316 -35.85563771988442 -2.1031807276842316 -35.85563771988442 -5.1904165633624935 51.07777664801053
2.4 -4.922184111078143 49.90739451912556 -2.235459546281637 -37.14045793143277 -2.2354595462816382 -37.14045793143277 -4.923160599661964 49.91150078420085
2.5 -4.671671766664482 48.755334316755686 -2.370988422245189 -38.40161334980171 -2.370988422245189 -38.4016133498017 -4.672613943480886 48.75938399973062
2.6 -4.436543613281519 47.61838693038875 -2.509628877304314 -39.639224760658344 -2.509628877304314 -39.639224760658344 -4.437454014894425 47.62236741813006
2.7 -4.2156133864906185 46.497284858265274 -2.65124861488053 -40.85346500351535 -2.65124861488053 -40.85346500351535 -4.216494627992905 46.50118586539683
2.8 -4.007812750967253 45.392586076848104 -2.795722074158265 -42.044554200280885 -2.795722074158263 -42.04455420028089 -4.008667450616555 45.3963996750295
2.9 -3.812175968320197 44.304700491209246 -2.9429308579299445 -43.21275492816578 -2.9429308579299462 -43.21275492816578 -3.8130066827701876 44.308420984080676
3.0 -3.6278271124808574 43.23391202391991 -3.092764049982035 -44.35836744542067 -3.0927640499820375 -44.35836744542067 -3.628636285783057 43.23753572416416
3.1 -3.453969324019858 42.180397237415505 -3.2451184369351687 -45.48172505128217 -3.2451184369351687 -45.48172505128217 -3.4547592508987406 42.18392219097012
3.2 -3.289875710031222 41.144241160303956 -3.399898648452264 -46.58318963981569 -3.3998986484522655 -46.58318963981569 -3.290648512397299 41.14766685131454
3.3 -3.134881582844469 40.12545082711786 -3.557017228649043 -47.66314748905299 -3.5570172286490416 -47.663147489052996 -3.1356391976951317 40.12877788731017
3.4 -2.9883777964277374 39.123966925051334 -3.716394650461078 -48.72200531326662 -3.7163946504610794 -48.72200531326662 -2.9891219729898104 39.12719686302501
3.5 -2.8498049894754454 38.1396738558515 -3.877959283586833 -49.76018659429206 -3.8779592835868315 -49.76018659429206 -2.850537293462012 38.14280881545272
3.6 -2.7186485827932767 37.172408457660616 -4.041647325577979 -50.77812819915234 -4.041647325577979 -50.77812819915234 -2.719370405795625 37.17545100992469
3.7 -2.5944344085027278 36.22196758438964 -4.207402704614034 -51.77627728403992 -4.207402704614036 -51.77627728403991 -2.5951469808349357 36.22492055397818
3.8 -2.476724872016978 35.288114703719835 -4.3751769615425085 -52.75508847955848 -4.3751769615425085 -52.75508847955849 -2.477429277601244 35.29098102874986
3.9 -2.3651155660964456 34.37058564700937 -4.5449291178503435 -53.71502134768184 -4.544929117850342 -53.71502134768184 -2.3658127582786186 34.373368269494165
4.0 -2.259232270843781 33.46909362260736 -4.716625535449104 -54.65653809854182 -4.716625535449104 -54.65653809854182 -2.2599230882874237 33.47179540613141
4.1 -2.1587282851061533 32.58333358672669 -4.890239773408059 -55.58010155249881 -4.890239773408059 -55.58010155249881 -2.159413467151971 32.5859572575288
4.2 -2.063282043994182 31.71298605212845 -5.0657524460960826 -56.48617333230128 -5.065752446096081 -56.48617333230128 -2.063962245053031 31.71553415980843
4.3 -1.972594984716089 30.8577204036635 -5.243151086658706 -57.37521226880274 -5.243151086658708 -57.37521226880274 -1.9732707874350897 30.860195297829485
4.4 -1.886389628980063 30.01719778031005 -5.422430019226424 -58.247673004015795 -5.422430019226426 -58.24767300401581 -1.887061556032129 30.019601599924343
4.5 -1.8044078551279332 29.191073575671446 -5.603590242836535 -59.10400477491611 -5.603590242836535 -59.10400477491611 -1.8050763795784426 29.193408248093867
4.6 -1.7264093372323757 28.37899960229244 -5.786639329711091 -59.94465036213058 -5.786639329711094 -59.944650362130595 -1.7270748914934604 28.38126684958063
4.7 -1.6521701316753543 27.580625959677235 -5.9715913402231 -60.77004518789815 -5.9715913402231 -60.77004518789815 -1.6528331151279605 27.582827309893993
4.8 -1.5814813945267248 26.79560264099711 -6.15846675667745 -61.58061654862441 -6.1584667566774485 -61.58061654862441 -1.5821421798952255 26.797739442955297
4.9 -1.5141482152887118 26.023580909540094 -6.347292437863999 -62.37678296793542 -6.347292437863999 -62.37678296793542 -1.514807153893916 26.025654349335984
5.0 -1.4499885545286149 25.264214472099074 -6.538101596221633 -63.158953657041174 -6.5381015962216305 -63.15895365704118 -1.4506459805453207 25.266225590624988
5.1 -1.3888322745171409 24.517160473718498 -6.730933799400724 -63.92752807010411 -6.730933799400724 -63.92752807010411 -1.3894885083557715 24.519110184036023
5.2 -1.3305202533595888 23.78208033503334 -6.925834998017729 -64.6828955430033 -6.925834998017728 -64.6828955430033 -1.3311756043087914 23.78396943913836
5.3 -1.2749035742702166 23.05864045137701 -7.122857581405222 -65.4254350048027 -7.122857581405221 -65.4254350048027 -1.2755583425124997 23.060469655927797
5.4 -1.2218427826343599 22.34651277045755 -7.322060463300737 -66.15551475198653 -7.322060463300737 -66.15551475198652 -1.2224972607335578 22.34828270112724
5.5 -1.171207204346584 21.645375263583816 -7.52350919951954 -66.87349227616386 -7.523509199519538 -66.87349227616386 -1.1718616783189089 21.6470864779086
5.6 -1.1228743196478843 20.954912303775565 -7.727276139867224 -67.57971413673069 -7.727276139867223 -67.57971413673069 -1.1235290696971503 20.956565302399703
5.7 -1.0767291873377811 20.27481496240266 -7.933440616817958 -68.27451587042646 -7.933440616817956 -68.27451587042647 -1.077384488321425 20.27641019881163
5.8 -1.0326639147519632 19.604781234970773 -8.142089173736837 -68.95822193035004 -8.142089173736837 -68.95822193035004 -1.0333200364543176 19.606319123623685
5.9 -0.9905771694246334 18.94451620508168 -8.353315835867802 -69.63114564742808 -8.353315835867802 -69.63114564742808 -0.9912343766766952 18.94599712818378
6.0 -0.950373728733262 18.29373215504733 -8.567222427679246 -70.2935892076485 -8.567222427679248 -70.2935892076485 -0.951032281443604 18.29515646798395
6.1 -0.9119640642330364 17.65214863003832 -8.78391894074231 -70.94584363867959 -8.783918940742312 -70.94584363867959 -0.9126242173431126 17.653516665720723
6.2 -0.8752639576841826 17.019492462607143 -9.003523956888692 -71.58818879969547 -9.00352395688869 -71.58818879969547 -0.875925961093037 17.020804534631523
6.3 -0.8401941460881659 16.39549776281807 -9.226165132139588 -72.22089336830689 -9.226165132139588 -72.22089336829688 -0.8408582445618817 16.396754167918143
6.4 -0.8066799932953651 15.77990587928551 -9.45197974772937 -72.84421481847674 -9.451979747729371 -72.84421481847674 -0.8073464263796709 15.781106898919544
6.5 -0.7746511859769528 15.172465335432834 -9.681115335560225 -73.45839938318846 -9.681115335560225 -73.45839938318846 -0.7753201879262013 15.173611236765682
6.6 -0.7440414519630205 14.572931744794609 -9.913730386547044 -74.0636819952357 -9.913730386547044 -74.0636819952357 -0.7447132516910211 14.574022781195298
6.7 -0.7147882991249952 13.981067708814539 -10.149995151740704 -74.660286199321 -10.149995151740704 -74.66028619932099 -0.7154631201863588 13.982104119959935
6.8 -0.6868327731521264 13.39664270019215 -10.390092547651616 -75.24842402782127 -10.390092547651616 -75.24842402782127 -0.6875108337538502 13.39762471178718
6.9 -0.6601192327109674 12.819432934240993 -10.634219179293549 -75.82829583184765 -10.634219179293552 -75.82829583183765 -0.6608007457572064 12.820360757655678
7.0 -0.634595140618174 12.249221230781313 -10.882586496357439 -76.40009005812713 -10.882586496357439 -76.40009005812713 -0.635280313785171 12.2500950624052
7.1 -0.6102108697683261 11.685796868360045 -11.13542210126489 -76.96398296104361 -11.13542210126489 -76.96398296103362 -0.6108999056095912 11.686616888934072
7.2 -0.5869195226725039 11.128955432680996 -11.392971230330014 -77.52013823693581 -11.392971230330017 -77.5201382369258 -0.587612618750216 11.129721806567279
7.3 -0.5646767635584892 10.578498660657923 -11.655498433918222 -78.06870656626923 -11.655498433918218 -78.06870656625922 -0.5653741125979093 10.57921153511761
7.4 -0.543440662070802 10.034234281563403 -11.923289485672253 -78.60982504577039 -11.923289485672253 -78.60982504577039 -0.544142452135215 10.034893786072761
7.5 -0.523171547693534 9.495975856253969 -12.196653556766178 -79.14361648957012 -12.19665355676618 -79.14361648956012 -0.5238779623747877 9.496582101825913
7.6 -0.503831874085724 8.963542615490955 -12.475925698337477 -79.67018857372425 -12.475925698337477 -79.67018857372425 -0.5045430927075654 8.96409569414725
7.7 -0.48538609259042 8.43675929828977 -12.761469683487707 -80.1896327929791 -12.761469683487705 -80.18963279296908 -0.48610229042155995 8.437259282558793
7.8 -0.4678005342371582 7.91545599089856 -13.053681270951971 -80.70202319115977 -13.05368127095197 -80.70202319115978 -0.46852188270948514 7.91590293342397
7.9 -0.45104329961119316 7.399467967078713 -13.35299196564743 -81.20741481793931 -13.352991965647426 -81.20741481793931 -0.4517699665416771 7.399861900325932
8.0 -0.43508415601523126 6.888635530184115 -13.659873367581227 -81.70584185213627 -13.659873367581225 -81.70584185212628 -0.43581630582814934 6.888976466243726
8.1 -0.41989444139327675 6.382803857482244 -13.974842220937745 -82.19731531723974 -13.974842220937745 -82.19731531723974 -0.4206322353406102 6.383091787955367
8.2 -0.4054469745307958 5.881822847049921 -14.298466301265693 -82.68182029430912 -14.298466301265693 -82.68182029430912 -0.40619057090862554 5.882057743039511
8.3 -0.3917159710789293 5.38554696756845 -14.631371311304903 -83.15931251149757 -14.631371311304903 -83.15931251149757 -0.3924655254384436 5.385728779739549
8.4 -0.3786769649914743 4.89383511122984 -14.974248998213064 -83.6297141548976 -14.974248998213064 -83.6297141548976 -0.37943263034302516 4.893963769953796
8.5 -0.3663067349894139 4.40655044995463 -15.327866759602562 -84.09290869896684 -15.32786675960256 -84.09290869896684 -0.36706866199858246 4.406625865517184
8.6 -0.3545832357027108 3.923560295058789 -15.693079076377359 -84.54873449265325 -15.69307907637736 -84.54873449265324 -0.35535157287740454 3.9235823579380367
8.7 -0.3434855331607822 3.4447359604950516 -16.070841204050183 -84.99697675216795 -16.07084120405018 -84.99697675216795 -0.3442604270292737 3.44470454168016
8.8 -0.3329937443329182 2.969952629715948 -16.46222567791987 -85.4373574946748 -16.46222567791987 -85.43735749466478 -0.33377533961187966 2.9698675810786095
8.9 -0.3230889804376218 2.4990892262347497 -16.86844235388915 -85.86952278380534 -16.86844235388915 -85.86952278380534 -0.32387742018999 2.4989503809372464
9.0 -0.3137532937652548 2.032028287893417 -17.290862932492704 -86.29302642813829 -17.290862932492704 -86.29302642813829 -0.31454871954857583 2.031835460822199
9.1 -0.30496962777388614 1.5686558448456125 -17.731051223785673 -86.70730894394244 -17.731051223785673 -86.70730894394244 -0.30577217977835025 1.5684088330712818
9.2 -0.2967217702382699 1.108861301238729 -18.19080084260255 -87.11167011523195 -18.19080084260255 -87.11167011523195 -0.29753158741529795 1.1085598844923075
9.3 -0.2889943092476493 0.6525373205752424 -18.672182633686603 -87.50523277694343 -18.672182633686603 -87.50523277693344 -0.28981152942918376 0.6521812617280798
9.4 -0.28177259186035813 0.19957971469894437 -19.177605001139657 -87.88689438434388 -19.177605001139653 -87.88689438434388 -0.2825973518694405 0.19916876025741936
9.5 -0.27504268524344816 -0.2501126636337886 -19.709891594182444 -88.25526130153855 -19.709891594182444 -88.25526130153855 -0.275875120996153 -0.2505787830410366
9.6 -0.2687913401297263 -0.6966380246629369 -20.272382701035347 -88.60855818814842 -20.272382701035344 -88.60855818813843 -0.2696315867292034 -0.6971595937981007
9.7 -0.26300595644344205 -1.140091742078327 -20.869069589569712 -88.9445007639863 -20.869069589569712 -88.9445007639863 -0.26385414826716197 -1.1406690606175474
9.8 -0.2576745509529933 -1.580566450095435 -21.504775521119583 -89.26011347472111 -21.504775521119583 -89.26011347471109 -0.2585308217331249 -1.5811998321596104
9.9 -0.2527857268203798 -2.0181521372201194 -22.185404327503964 -89.55146210331974 -22.185404327503964 -89.55146210331974 -0.25365020971780755 -2.018841910923934
10.0 -0.24832864492463624 -2.45293623680313 -22.918289214899485 -89.81325120373616 -22.918289214899485 -89.81325120373616 -0.24920147259792938 -2.453682743810397
10.1 -0.24429299684773878 -2.8850037144369254 -23.71269446970366 -90.03819939403677 -23.712694469703656 -90.03819939402676 -0.24517430151740166 -2.885807309546254
10.2 -0.24066897941763205 -3.3144371523167635 -24.580558080108446 -90.21603519573225 -24.580558080108446 -90.21603519573225 -0.24155889292577018 -3.3152982030498195
10.3 -0.23744727070908106 -3.7413168306177096 -25.537628529154446 -90.33181460031498 -25.537628529154446 -90.331814600305 -0.23834592457620404 -3.7422357168392755
10.4 -0.23461900741357453 -4.165720806004104 -26.605275899865354 -90.36295891491179 -26.605275899865354 -90.3629589149018 -0.23552653289138326 -4.1666979195522025
10.5 -0.2321757634910831 -4.587724987332128 -27.813519971072985 -90.27371472693176 -27.813519971072985 -90.27371472691176 -0.23309229161386255 -4.588760731670486
10.6 -0.2301095300262524 -5.007403208658124 -29.206403445332644 -90.00398199312873 -29.206403445332644 -90.00398199311874 -0.23103519166011577 -5.008497998548236
10.7 -0.2284126962149301 -5.424827299613391 -30.85227038986893 -89.44449640536801 -30.85227038986893 -89.44449640535802 -0.22934762210525228 -5.4259815608004525
10.8 -0.2270780314116052 -5.840067153250051 -32.86544461261197 -88.37408598347734 -32.86544461261197 -88.37408598345733 -0.22802235223016723 -5.841281322174104
10.9 -0.2260986681742241 -6.253190791433839 -35.45835258271389 -86.26919593766152 -35.4583525827139 -86.26919593764154 -0.22705251456574155 -6.254465314945375
11.0 -0.2254680862468593 -6.664264427860466 -39.09117631856592 -81.53739647077082 -39.09117631856593 -81.53739647073083 -0.22643158887534823 -6.665599762961855
11.1 -0.22518009742298617 -7.073352528791367 -44.96822895057556 -66.4760994448924 -44.968228950565546 -66.47609944481239 -0.22615338701918675 -7.074749142386406
11.2 -0.22522883123883436 -7.480517871571604 -50.426998793774246 11.27412110621478 -50.42699879375425 11.274121106164777 -0.226212038647792 -7.48197624022654
11.3 -0.2256087214466842 -7.8858216010127125 -42.69819287550544 59.392589463822276 -42.698192875505434 59.39258946376228 -0.22660197767703072 -7.8873422107310756
11.4 -0.22631449322300073 -8.289323283726302 -37.832846952002754 69.0447166934717 -37.832846952002754 69.0447166934417 -0.22731792949746946 -8.290906629725953
11.5 -0.2273411510691993 -8.69108096045729 -34.67344590914872 72.58858742583158 -34.67344590914872 72.58858742580158 -0.22835489887688376 -8.692727546959992
11.6 -0.2286839673635764 -9.091151196514494 -32.35584828045356 74.27078100795187 -32.35584828045356 74.27078100793186 -0.229708158514426 -9.092861536537448
11.7 -0.23033847152937656 -9.489589130346598 -30.531092102834446 75.1533678091359 -30.53109210283445 75.15336780911589 -0.23137323821129277 -9.491363745496313
11.8 -0.23230043978193934 -9.886448520343164 -29.02856433057491 75.62157594685048 -29.028564330574905 75.6215759468405 -0.23334591461982676 -9.888287940610105
11.9 -0.2345658854232409 -10.281781789913774 -27.752791113694556 75.84807787758363 -27.752791113694563 75.84807787757364 -0.23562220154091065 -10.28368655346614
12.0 -0.23713104965261367 -10.675640070937947 -26.645109522239075 75.92164479056042 -26.645109522239075 75.92164479055042 -0.23819834073826193 -10.677610723897152
12.1 -0.23999239286589125 -11.06807324555501 -25.66694415754035 75.89253018349693 -25.666944157540353 75.89253018348694 -0.24107079323938096 -11.070110341817138
12.2 -0.24314658641402265 -11.45912998654049 -24.79159254143696 75.7912924410926 -24.79159254143696 75.7912924410826 -0.24423623109888015 -11.461234087491377
12.3 -0.24659050479847147 -11.84885779607128 -23.99981350375484 75.63756931484049 -23.99981350375484 75.6375693148305 -0.24769152959567392 -11.851029470387568
12.4 -0.25032121827738 -12.237303043137214 -23.277287835708044 75.44454778184635 -23.277287835708044 75.44454778183635 -0.2514337598435894 -12.239542866558912
12.5 -0.25433598586124573 -12.624510999624114 -22.61307339007992 75.22140571697578 -22.61307339007992 75.2214057169658 -0.25546018179022756 -12.626819554619258
12.6 -0.2586322486778616 -13.01052587494827 -21.998621680854274 74.97472314269014 -21.998621680854278 74.97472314269014 -0.25976823758483775 -13.012903750490043
12.7 -0.26320762368507145 -13.395390849532149 -21.42712787675687 74.70933687362081 -21.42712787675687 74.7093368736108 -0.264355545295809 -13.39783864077917
12.8 -0.2680598977150469 -13.779148107021399 -20.893087260366986 74.4288787954123 -20.893087260366986 74.4288787954123 -0.26921989295704934 -13.781666415001649
12.9 -0.273187021830466 -14.161838865323023 -20.39198420316925 74.13612642703382 -20.39198420316925 74.13612642703382 -0.2743592329289781 -14.164428296562033
13.0 -0.27858710597872904 -14.543503406444767 -19.92006885041555 73.83323792382961 -19.92006885041555 73.83323792382961 -0.27977167655568597 -14.546164572608594
13.1 -0.28425841392724616 -14.924181105345493 -19.474193432857138 73.52191363642812 -19.474193432857135 73.52191363641813 -0.28545548910386204 -14.926914622839208
13.2 -0.2901993584651499 -15.30391045765672 -19.05169007705691 73.20350967060976 -19.051690077056907 73.20350967060976 -0.2914090849682158 -15.306716947198941
13.3 -0.2964084968600126 -15.68272910641513 -18.650278103091765 72.87911929545353 -18.650278103091765 72.87911929545355 -0.29763102313131995 -15.685609192529288
13.4 -0.30288452655382836 -16.06067386776605 -18.267992666705137 72.54963233762277 -18.26799266670514 72.54963233762277 -0.3041200028632363 -16.06362817834912
13.5 -0.30962628108940843 -16.437780755827895 -17.90312910982969 72.21577920469915 -17.90312910982969 72.21577920469915 -0.31087485965134437 -16.440809921537216
13.6 -0.31663272625232775 -16.814085006487655 -17.554199046220063 71.87816398449613 -17.554199046220063 71.87816398449613 -0.3178945613452427 -16.817189660226482
13.7 -0.3239029564222321 -17.189621100477034 -17.21989533352583 71.53728965553103 -17.219895333525834 71.53728965552102 -0.32517820451134793 -17.192801876739825
13.8 -0.3314361911186953 -17.564422785499683 -16.89906385846451 71.19357751710598 -16.899063858464512 71.19357751709597 -0.33272501098202567 -17.567680319717603
13.9 -0.3392317717359381 -17.938523097579235 -16.590680604714702 70.84738232717794 -16.590680604714702 70.84738232716795 -0.3405343245930325 -17.941858025426775
14.0 -0.34728915845579 -18.31195438158811 -16.293832859849363 70.49900421390751 -16.29383285984936 70.49900421390751 -0.34860560809915353 -18.3153673382317
