! Created with skrf 1.12.0 (http://scikit-rf.org).
# GHz S DB R 50.0 
!freq dBS11 angS11 dBS21 angS21 dBS12 angS12 dBS22 angS22
0.01 -27.27519936798281 3.440203656013209 -0.38356085276977014 -0.18099099924381065 -0.38356085276986995 -0.18099099923721068 -27.275194543049615 3.4401703848979293
0.02 -27.225082668701297 6.853278407399299 -0.383744327142205 -0.36196196822006516 -0.38374432714230383 -0.3619619682167651 -27.225067806727733 6.853202551548663
0.1 -25.862620696503168 30.701021052577396 -0.38953352115817846 -1.8067632574473245 -0.3895335211582763 -1.8067632574463237 -25.86239041748538 30.699392755188256
0.2 -23.18695354370338 48.7841679791421 -0.406751123188629 -3.5968167405349707 -0.406751123188629 -3.59681674053397 -23.186692288135376 48.77748053312978
0.3 -20.68611378611397 57.966350426561505 -0.4332998315915231 -5.361958794311288 -0.43329983159162233 -5.361958794311287 -20.68645590084341 57.95476752096043
0.4 -18.59243297852275 62.65857812355188 -0.46761563230206826 -7.101914627667757 -0.467615632302168 -7.101914627667757 -18.593735059876117 62.645559641611584
0.5 -16.851481054514153 65.02121253829526 -0.5088300796695607 -8.819193160538948 -0.5088300796696589 -8.819193160538946 -16.85362513446811 65.0104169814928
0.6 -15.385069943436985 66.08077902842781 -0.5565519950995688 -10.515917623392395 -0.5565519950995678 -10.515917623392395 -15.387687628388964 66.07406385780936
0.7 -14.13077268022301 66.36164647819946 -0.6106035469880391 -12.193107415782576 -0.6106035469881395 -12.193107415782576 -14.133506867816038 66.35909016058216
0.8 -13.042723693889576 66.15232869249739 -0.6708727322875079 -13.85086877264867 -0.6708727322876089 -13.85086877264867 -13.04534186941474 66.15307961045862
0.9 -12.08745308019469 65.62193046369322 -0.7372475135132868 -15.488726596852219 -0.7372475135133896 -15.488726596852219 -12.089846806285422 65.62492321783331
1.0 -11.240220518318637 64.87492844982648 -0.8095918241314441 -17.10590398060294 -0.8095918241315447 -17.105903980602935 -11.242365241820503 64.87924501900173
1.1 -10.482402374579475 63.978798647170024 -0.8877417520036242 -18.701517305054338 -0.8877417520037234 -18.70151730505434 -10.484318067286615 63.98377566226659
1.2 -9.799708884922389 62.978800125019895 -0.9715101537964532 -20.274695997551362 -0.9715101537965547 -20.27469599755136 -9.80143313168869 62.9840135211182
1.3 -9.18097152305789 61.90628848273194 -1.0606936099026028 -21.824647584989034 -1.0606936099026016 -21.824647584989034 -9.182544323745025 61.91149741820007
1.4 -8.617310083692349 60.78359418499758 -1.1550790284608845 -23.35068788481562 -1.1550790284608845 -23.350687884815624 -8.61876666357697 60.78868240850004
1.5 -8.101552210629862 59.626995053074644 -1.2544490129075623 -24.852250977655995 -1.254449012908564 -24.852250977656 -8.102920517442453 59.631923258736016
1.6 -7.627822208806146 58.44859007592951 -1.358585913787498 -26.3288883601929 -1.358585913787497 -26.328888360192895 -7.629122840316066 58.45336158769509
1.7 -7.191244850196129 57.25751764781441 -1.4672747707196685 -27.78026281242453 -1.4672747707196685 -27.78026281242453 -7.1924920657349585 57.26215562678866
1.8 -6.7877284658934265 56.06077007749927 -1.5803054050271172 -29.206140039703865 -1.5803054050271184 -29.206140039703865 -6.788931546295544 56.06530344805228
1.9 -6.413803569016317 54.863752124083554 -1.6974738932710913 -30.6063796861859 -1.6974738932710927 -30.606379686185907 -6.414968157481878 54.86820761918253
2.0 -6.066500989659387 53.67067284328138 -1.818583600396637 -31.98092649294298 -1.818583600396637 -31.980926492942974 -6.067630252879669 53.675071117236996
2.1 -5.743258561188758 52.484826206611594 -1.943445902336033 -33.32980193162636 -1.943445902336033 -33.329801931626356 -5.744354119566175 52.48918051752083
2.2 -5.441848744473138 51.30879584350588 -2.0718806888151255 -34.6530964185161 -2.071880688815127 -34.65309641851611 -5.442911374316305 51.31311226227625
2.3 -5.160321821696483 50.14460697821988 -2.2037167081331956 -35.950962107666044 -2.203716708133197 -35.95096210766605 -5.161351956119011 50.14888542183768
2.4 -4.896960818669173 48.99384094942686 -2.3387917953492052 -37.22360622003762 -2.3387917953492052 -37.223606220037624 -4.897958881977427 48.99807657996992
2.5 -4.650245368567439 47.85772277852832 -2.476953011521416 -38.471284855224106 -2.476953011521412 -38.471284855224106 -4.65121197930538 47.8619074787524
2.6 -4.418822468104473 46.73718903079503 -2.618056712614225 -39.694297237229364 -2.618056712614223 -39.69429723721936 -4.419758542691677 46.74131278320404
2.7 -4.201482601099019 45.63294106340316 -2.7619685610358244 -40.89298035558859 -2.7619685610358236 -40.892980355588584 -4.202389385551528 45.63699313844735
2.8 -3.997140081611331 44.54548729347592 -2.9085634893059287 -42.067703973006836 -2.9085634893059242 -42.067703973006836 -3.9980191340448394 44.54945720453488
2.9 -3.8048167436837548 43.4751771113297 -3.0577256233707044 -43.21886597908215 -3.0577256233707044 -43.21886597908216 -3.805669885801865 43.4790553287393
3.0 -3.623628307427869 42.42222835867748 -3.209348171909972 -44.346888075304385 -3.209348171909972 -44.346888075304385 -3.6244575591322574 42.426006796697976
3.1 -3.452772902370418 41.38674979234749 -3.3633332873668547 -45.45221177988927 -3.3633332873668547 -45.45221177988927 -3.453580410058201 41.3904220955373
3.2 -3.291521342682123 40.36875959633691 -3.519591904002918 -46.53529474254065 -3.519591904002919 -46.53529474254066 -3.292309308799381 40.372321258336875
3.3 -3.1392088353536947 39.36820074610939 -3.6780435579605966 -47.59660735905098 -3.6780435579605966 -47.59660735905097 -3.1399794542586235 39.37164909581576
3.4 -2.9952278685020817 38.38495384039735 -3.8386161940530616 -48.63662967531448 -3.8386161940530616 -48.63662967531448 -2.9959832716751293 38.388287929362136
3.5 -2.859022078041538 37.41884787610866 -4.001245963640642 -49.65584856899797 -4.001245963640642 -49.65584856899797 -2.8597642901182017 37.42206829787183
3.6 -2.730080930557986 36.469669337952936 -4.165877017679802 -50.65475519594134 -4.1658770176798035 -50.65475519594134 -2.7308118364812173 36.4727780061251
3.7 -2.607935091249827 35.53716989654216 -4.33246129862645 -51.633842687646094 -4.332461298626448 -51.6338426876461 -2.6086564140147974 35.54016980332887
3.8 -2.4921523701641117 34.62107294892029 -4.50095833456192 -52.59360408507439 -4.50095833456192 -52.59360408507439 -2.492865658098972 34.623967921479704
3.9 -2.382334159282711 33.72107919000215 -4.671335038549655 -53.53453049379418 -4.671335038549654 -53.53453049379418 -2.383040781496958 33.723873657188484
4.0 -2.278112288434098 32.83687136778392 -4.843565515929634 -54.45710944501918 -4.843565515929632 -54.457109445019185 -2.278813436953616 32.839570146219096
4.1 -2.1791462403268387 31.968118347443752 -5.017630881933776 -55.361823447374235 -5.017630881933774 -55.36182344737423 -2.179842937421024 31.97072645240872
4.2 -2.085120674975944 31.114478587527387 -5.193519091781696 -56.24914871416985 -5.193519091781699 -56.249148714169856 -2.085813784313582 31.117001071294943
4.3 -1.9957432219001783 30.275603113705507 -5.371224785178312 -57.11955405144172 -5.3712247851783115 -57.11955405144171 -1.9964334622860005 30.278044932125347
4.4 -1.9107425050284543 29.451138061619407 -5.550749146936063 -57.97349989259369 -5.550749146936063 -57.97349989259369 -1.9114304656731709 29.453503968076244
4.5 -1.829866370701462 28.640726848884206 -5.73209978532557 -58.81143746563689 -5.732099785325567 -58.81143746563689 -1.8305525271593945 28.64302131364941
4.6 -1.752880293595473 27.844012026901446 -5.915290629609487 -59.63380808015976 -5.915290629609489 -59.63380808015976 -1.753565023688868 27.846239179428338
4.7 -1.6795659391068143 27.060636855705493 -6.100341848151824 -60.44104252115928 -6.100341848151823 -60.44104252115928 -1.6802495383165654 27.06280044691849
4.8 -1.609719863804516 26.290246638601324 -6.287279788448094 -61.233560538067366 -6.287279788448094 -61.233560538067366 -1.610402559750753 26.29235002011903
4.9 -1.54315233812337 25.532489848083916 -6.476136940387651 -62.01177041738173 -6.4761369403876525 -62.01177041738173 -1.5438343038985223 25.5345359655865
5.0 -1.4796862776563904 24.787019070402806 -6.6669519241017845 -62.776068628426096 -6.6669519241017845 -62.776068628426096 -1.4803676438476674 24.789010468223594
5.1 -1.4191562711695085 24.05349179219744 -6.859769503778711 -63.52683953182051 -6.859769503778709 -63.52683953182052 -1.4198371365241993 24.05543062672923
5.2 -1.3614076950613174 23.33157104960173 -7.054640628920969 -64.26445514115905 -7.0546406289209695 -64.26445514115903 -1.3620881357727286 23.333459109348134
5.3 -1.306295905243763 22.62092595774847 -7.251622504635272 -64.98927492874891 -7.251622504635272 -64.98927492874891 -1.3069759829067342 22.62276468799066
5.4 -1.2536854985628632 21.921232136045962 -7.450778692706738 -65.70164566661256 -7.450778692706736 -65.70164566661256 -1.2543652668747463 21.923022666635564
5.5 -1.2034496368093555 21.23217204295148 -7.652179245400465 -66.4019012945115 -7.652179245400466 -66.40190129451149 -1.204129147105091 21.233915217829967
5.6 -1.1554694272119428 20.55343523208721 -7.855900874170029 -67.09036280680898 -7.855900874170029 -67.09036280680898 -1.1561487329369193 20.55513163949256
5.7 -1.109633353964545 19.88471854016583 -8.06202715575136 -67.76733815057653 -8.06202715575136 -67.76733815057653 -1.1103125142108579 19.8863685426473
5.8 -1.0658367560089936 19.225726216024476 -8.27064877845038 -68.43312212714821 -8.270648778450377 -68.4331221271482 -1.066515838205579 19.227329979625885
5.9 -1.023981346753159 18.576169998695953 -8.481863831852337 -69.08799628955457 -8.481863831852337 -69.08799628955457 -1.0246604286423442 18.577727520858513
6.0 -0.9839747719353678 17.935769151787554 -8.695778143628054 -69.7322288281985 -8.695778143628054 -69.73222882819852 -0.9846539429139325 17.93728028756283
6.1 -0.9457302021798577 17.304250460368394 -8.912505667692566 -70.36607443698243 -8.912505667692567 -70.36607443698242 -0.9464095641211258 17.30571494673214
6.2 -0.9091659571992028 16.68134819586627 -9.13216892858999 -70.98977415169722 -9.13216892858999 -70.98977415169722 -0.9098456248294079 16.68276567408392
6.3 -0.8742051588670298 16.06680405385614 -9.354899527750993 -71.60355515205224 -9.354899527750995 -71.60355515205224 -0.8748852597795442 16.068174089690586
6.4 -0.8407754106835047 15.460367068992111 -9.5808387181412 -72.20763051806445 -9.5808387181402 -72.20763051806445 -0.8414560850594823 15.461689170894436
6.5 -0.8088085013867506 14.86179351083538 -9.810138054835758 -72.8021989306959 -9.810138054835761 -72.8021989306959 -0.8094899014826942 14.863067146089191
6.6 -0.7782401306815403 14.270846763800558 -10.042960130290158 -73.38744430536697 -10.042960130290158 -73.38744430536697 -0.7789224201373128 14.272071372660513
6.7 -0.7490096552494419 13.687297194173123 -10.279479404440226 -73.9635353456138 -10.279479404440226 -73.9635353456138 -0.749693008261748 13.688472202248205
6.8 -0.7210598533717049 13.110922006630608 -10.519883141574248 -74.53062500233733 -10.519883141574244 -74.53062500233733 -0.7217444537726093 13.112046835442635
6.9 -0.6943367066528685 12.541505092560365 -10.764372467647863 -75.08884982172195 -10.764372467647863 -75.08884982172195 -0.6950227469258545 12.54257916852829
7.0 -0.6687891974675304 11.978836871956595 -11.013163564437669 -75.63832916228115 -11.013163564437667 -75.63832916228115 -0.6694768777281995 11.979859633866864
7.1 -0.6443691208753343 11.422714130649258 -11.266489019307762 -76.17916425767808 -11.266489019307759 -76.1791642576781 -0.6450586478401655 11.423685035812877
7.2 -0.6210309098630783 10.872939854197712 -11.524599353143266 -76.7114370978584 -11.524599353143266 -76.7114370978684 -0.6217224958239255 10.873858383354131
7.3 -0.5987314728680597 10.329323059901482 -11.787764752790864 -77.23520909555333 -11.787764752790864 -77.23520909556335 -0.5994253346872545 10.330188720999752
7.4 -0.5774300426296077 9.791678627630734 -12.056277039247082 -77.75051949827056 -12.056277039247082 -77.75051949828055 -0.5781264007683693 9.792490958701205
7.5 -0.5570880354984535 9.259827130813822 -12.330451908954549 -78.25738349771086 -12.330451908954547 -78.25738349771086 -0.55778711308608 9.260585701860634
7.6 -0.5376689204022992 8.733594667989282 -12.610631492666624 -78.75578997761836 -12.610631492666622 -78.75578997762837 -0.5383709423538492 8.734299082192827
7.7 -0.5191380967390116 8.212812695816393 -12.89718728515069 -79.24569882789216 -12.89718728515069 -79.24569882789216 -0.5198432889262963 8.213462590033961
7.8 -0.5014627805252119 7.6973178640024384 -13.190523510170348 -79.72703773541787 -13.190523510170348 -79.72703773541787 -0.5021713690037479 7.697912908683258
7.9 -0.48461189818368383 7.186951852624679 -13.491080998566716 -80.19969834064678 -13.491080998566717 -80.19969834064678 -0.48532410847851787 7.187491751226377
8.0 -0.46855598740724264 6.681561212239856 -13.799341674329145 -80.66353162062113 -13.799341674329145 -80.66353162062113 -0.46927204385708476 6.682045700209535
8.1 -0.4532671045757578 6.180997207086089 -14.11583376453532 -81.11834232295361 -14.11583376453532 -81.11834232295361 -0.4539872297371147 6.181426050480078
8.2 -0.4387187382510633 5.685115661625782 -14.441137876361129 -81.56388222821008 -14.441137876361132 -81.56388222821006 -0.43944315235994413 5.685488655428064
8.3 -0.42488572830845217 5.1937768106461535 -14.77589411793025 -81.99984195568295 -14.77589411793025 -81.99984195568295 -0.42561464879946875 5.194093776831578
8.4 -0.4117441903005935 4.706845153047853 -15.120810484033615 -82.42584094528533 -15.120810484033614 -82.42584094528533 -0.4124778313818394 4.707105938446124
8.5 -0.39927144467996967 4.224189309441077 -15.47667278406896 -82.84141513825304 -15.47667278406896 -82.84141513825304 -0.4000100169603513 4.2243937834464775
8.6 -0.3874459505353752 3.7456818836434658 -15.844356463310277 -83.24600173038458 -15.844356463310277 -83.24600173038458 -0.38818966070421446 3.74582993579037
8.7 -0.37624724352627537 3.271199328094053 -16.22484076564759 -83.63892016844692 -16.22484076564759 -83.63892016844692 -0.37699629408081387 3.271290865559095
8.8 -0.3656558777202073 2.8006218132393426 -16.619225814486754 -84.01934828028683 -16.619225814486754 -84.01934828028683 -0.36641046673971056 2.800656758275255
8.9 -0.35565337106310924 2.3338331008696453 -17.02875336108962 -84.38629203767613 -17.02875336108962 -84.38629203767613 -0.35641369202687323 2.333811388206672
9.0 -0.34622215423319425 1.8707204213916313 -17.454832183944383 -84.73854689741017 -17.454832183944387 -84.73854689741017 -0.34698839587943386 1.870641995634421
9.1 -0.3373455226451201 1.4111743550130493 -17.899069443766347 -85.07464787140873 -17.899069443766347 -85.07464787140873 -0.3381178688687475 1.4110391680409433
9.2 -0.3290075913918367 0.9550887167768795 -18.363309745768905 -85.39280432022828 -18.363309745768905 -85.39280432022828 -0.32978622117861733 0.9548967251711598
9.3 -0.3211932529254854 0.5023604453963175 -18.849684290474965 -85.69081375032519 -18.849684290474965 -85.69081375032519 -0.32197834031998723 0.5021116079106152
9.4 -0.3138881372933263 0.05288949582095085 -19.36067339634875 -85.96594631334871 -19.36067339634875 -85.96594631334871 -0.31467985139843435 0.05258377090234198
9.5 -0.30707857475929295 -0.39342126454212145 -19.8991869893779 -86.21478773352354 -19.899186989377895 -86.21478773353351 -0.30787707976493134 -0.393783921166643
9.6 -0.30075156065282516 -0.8366661560313655 -20.468669599966056 -86.43302214864092 -20.46866959996605 -86.43302214864092 -0.301557015892264 -0.8370857936954449
9.7 -0.2948947222995627 -1.2769367834451395 -21.073239346295782 -86.61512630359802 -21.073239346295782 -86.61512630359802 -0.2957072823301973 -1.2774134588017907
9.8 -0.28949628789624005 -1.714322129356054 -21.71787492500194 -86.753929926155 -21.71787492500194 -86.75392992616499 -0.29031610260521395 -1.714855908547558
9.9 -0.28454505720687356 -2.1489086441132295 -22.408671816375353 -86.83996881586893 -22.408671816375353 -86.83996881586893 -0.28537227193601195 -2.149499604849603
10.0 -0.2800303739596626 -2.5807803326310337 -23.15320059216704 -86.86050730853474 -23.153200592167032 -86.86050730853474 -0.28086512965195115 -2.581428566165564
10.1 -0.27594209983841256 -3.010018838056242 -23.961019769422634 -86.79801545455207 -23.961019769422634 -86.79801545456206 -0.27678453320176055 -3.010724451062613
10.2 -0.27227058996580455 -3.436703522405592 -24.844429482177336 -86.6277114815781 -24.844429482177336 -86.62771148158811 -0.2731208336533959 -3.437466638745531
10.3 -0.2690066697850309 -3.8609115442729576 -25.819612915091213 -86.313428171966 -25.81961291509121 -86.313428171966 -0.2698648525904198 -3.8617323066556204
10.4 -0.26614161325185093 -4.282717933696741 -26.908425596834803 -85.80030950608808 -26.90842559683481 -85.80030950608808 -0.26700786031863905 -4.283596505222126
10.5 -0.26366712225592803 -4.702195664280218 -28.141312370455182 -85.00111813210418 -28.141312370455182 -85.00111813210418 -0.26454155529833945 -4.703132229874818
10.6 -0.26157530719463906 -5.119415722657441 -29.562273975392273 -83.7686242899943 -29.562273975392273 -83.76862429000433 -0.26245804473034834 -5.120410490390435
10.7 -0.2598586686295565 -5.534447175398473 -31.23770375634562 -81.83461212958558 -31.23770375634562 -81.83461212958558 -0.26074982622139226 -5.535500377679728
10.8 -0.25851007995886227 -5.9473572334376605 -33.2725488175514 -78.6585418500131 -33.27254881755141 -78.65854185002308 -0.25940977046516 -5.9484691280958275
10.9 -0.2575227710442242 -6.358211314111687 -35.83762252714982 -72.99213369975467 -35.837622527149826 -72.99213369976468 -0.2584311048766383 -6.359382185351703
11.0 -0.2568903127346438 -6.7670731008952165 -39.17526188567278 -61.39966827726894 -39.17526188567278 -61.399668277278934 -0.2578073981222145 -6.768303260139496
11.1 -0.25660660223424997 -7.174004600916825 -43.01585644713189 -33.590948530536885 -43.01585644713189 -33.590948530536885 -0.25753254549194365 -7.1752943875165185
11.2 -0.2566658492627759 -7.579066200334147 -43.31219840542674 15.2144782004535 -43.312198405436746 15.214478200473499 -0.25760075506429025 -7.580415982159737
11.3 -0.2570625629628732 -7.982316717643968 -39.590334624123564 45.301614685209685 -39.590334624123564 45.30161468521969 -0.25800653461585976 -7.983726891556564
11.4 -0.25779153951016287 -8.383813455013042 -36.22350839271393 57.781798324814126 -36.22350839271393 57.78179832482412 -0.25874467923340533 -8.385284447201789
11.5 -0.2588478503849535 -8.783612247688655 -33.64843239013406 63.79718101647125 -33.64843239013406 63.797181016481254 -0.2598102595851324 -8.785144513896531
11.6 -0.26022683126776747 -9.181767511576604 -31.623261691464087 67.14444353051186 -31.62326169146409 67.14444353051186 -0.26119861081610346 -9.183361537188029
11.7 -0.26192407152280495 -9.578332289044543 -29.969743460327717 69.18064795303515 -29.969743460327717 69.18064795303515 -0.26290532202916567 -9.579988589061225
11.8 -0.2639354042355594 -9.973358293024532 -28.578294217842135 70.48507545091846 -28.57829421784214 70.48507545091846 -0.26492622631924 -9.975077411907916
11.9 -0.26625689677348174 -10.366895949468764 -27.37986494928812 71.34213237351494 -27.379864949288123 71.34213237352492 -0.26725739132959997 -10.368678460873483
12.0 -0.2688848418403884 -10.75899443826118 -26.32888737529035 71.90671152146892 -26.328887375290357 71.90671152146892 -0.2698951102998293 -10.760840944599002
12.1 -0.27181574899735417 -11.149701732537094 -25.39394903122798 72.27004556231958 -25.39394903122798 72.27004556231958 -0.27283589357972 -11.151612864539763
12.2 -0.2750463366241889 -11.539064636649542 -24.552571250745423 72.48924128571251 -24.552571250745423 72.4892412857225 -0.27607646058163143 -11.54104105266198
12.3 -0.2785735242966058 -11.927128822698336 -23.788154559283324 72.60181823451964 -23.788154559283324 72.60181823451964 -0.27961373214768726 -11.929171207958731
12.4 -0.28239442555875155 -12.313938865613855 -23.088111984089696 72.63341739026733 -23.088111984089696 72.63341739026733 -0.2834448233103092 -12.316047931425008
12.5 -0.28650634106721573 -12.699538277162235 -22.442682208621363 72.6021429617227 -22.442682208621363 72.6021429617227 -0.2875670364229738 -12.701714759884846
12.6 -0.2909067520893969 -13.083969538452195 -21.844148197255425 72.5211331922087 -21.84414819725543 72.5211331922087 -0.29197785464417875 -13.086214198520425
12.7 -0.29559331433580005 -13.467274131503165 -21.286306842651065 72.40014789564722 -21.286306842651065 72.40014789564722 -0.2966749357527349 -13.469587752203166
12.8 -0.3005638521096301 -13.849492569454833 -20.76409925843141 72.24658454174107 -20.76409925843141 72.24658454174107 -0.3016561062803302 -13.851875955746712
12.9 -0.3058163527582577 -14.230664425798006 -20.273346941715623 72.06614897824424 -20.273346941715623 72.06614897824426 -0.30691935594342057 -14.233118403021805
13.0 -0.31134896141047347 -14.610828362506597 -19.81055954633115 71.86331023968107 -19.81055954633115 71.86331023968106 -0.31246283235977773 -14.613353775012987
13.1 -0.3171599759853752 -14.990022157161029 -19.372792227966112 71.64161631665378 -19.372792227966116 71.64161631665378 -0.31828483603552593 -14.992619866907104
13.2 -0.32324784246035565 -15.368282729082534 -18.957538021761884 71.40391802297903 -18.957538021761884 71.40391802297903 -0.3243838156101586 -15.370953614193594
13.3 -0.3296111503854723 -15.74564616452879 -18.562645441445774 71.152530694043 -18.56264544144577 71.152530694043 -0.3307583633469945 -15.748391117846575
13.4 -0.3362486286327735 -16.12214774097044 -18.186254542363873 70.88935294992525 -18.186254542363873 70.88935294992524 -0.33740721085720893 -16.12496766860858
13.5 -0.34315914136934145 -16.497821950548772 -17.82674670836409 70.61595524922167 -17.82674670836409 70.61595524922167 -0.3443292250480169 -16.50071777041609
13.6 -0.3503416842449938 -16.872702522564417 -17.48270478016922 70.33364682667606 -17.482704780169218 70.33364682667606 -0.3515234042842735 -16.875675163026788
13.7 -0.3577953807837278 -17.246822445276894 -17.152881075620268 70.04352692500053 -17.152881075620268 70.04352692500052 -0.3589888747544309 -17.24987284376845
13.8 -0.3655194789711142 -17.620213986875225 -16.83617150188977 69.74652445485513 -16.836171501889766 69.74652445485515 -0.36672488703322226 -17.62334308866962
13.9 -0.37351334802956443 -17.9929087156295 -16.531594420455352 69.4434290192062 -16.531594420455345 69.4434290192162 -0.3747308128325457 -17.996117472651935
14.0 -0.38177647537242654 -18.364937519353298 -16.238273256443318 69.13491541700364 -16.238273256443318 69.13491541700363 -0.38300614193228194 -18.368226889204205
