! Created with skrf 1.12.0 (http://scikit-rf.org).
# GHz S DB R 50.0 
!freq dBS11 angS11 dBS21 angS21 dBS12 angS12 dBS22 angS22
0.01 -29.429382500929787 4.836043208000294 -0.2973122076630055 -0.19462899840419334 -0.2973122076630045 -0.19462899840209327 -29.429359325880007 4.836383179434905
0.02 -29.30878768418748 9.410006500002812 -0.29850994432902195 -0.3836080696525069 -0.29850994432912076 -0.383608069651407 -29.308704809298778 9.410238855253267
0.1 -27.11860843381613 37.57218396005742 -0.3093573868194816 -1.8475298436587038 -0.30935738681948366 -1.8475298436587038 -27.118271268434864 37.56892917366174
0.2 -23.73846516243915 55.083425037744604 -0.33021372315669983 -3.646749225420095 -0.330213723156801 -3.6467492254200957 -23.738596132154125 55.0754260124695
0.3 -20.946629360226257 62.797793688087154 -0.3602433276947631 -5.415181401962044 -0.3602433276947621 -5.415181401961044 -20.947366980804553 62.78809194965113
0.4 -18.734352757685183 66.35227807277973 -0.39799711057840936 -7.151557924023911 -0.39799711057840936 -7.15155792402391 -18.73569361385185 66.34248478333286
0.5 -16.94409045813207 67.91644491643483 -0.44233878003759375 -8.85856292436538 -0.4423387800375927 -8.858562924365376 -16.945959203905293 67.90813984586973
0.6 -15.458392285438672 68.41886076323857 -0.4926205691649208 -10.539476138061758 -0.49262056916492186 -10.539476138061756 -15.460610267741984 68.4131216076557
0.7 -14.19833898175871 68.3080390423019 -0.5484981926148823 -12.19689387763513 -0.5484981926148823 -12.19689387763513 -14.200700683694091 68.30515832942747
0.8 -13.110449814366953 67.82122649487322 -0.6097826110909416 -13.832567495818981 -0.6097826110909416 -13.832567495818983 -13.112789770038226 67.8208936790331
0.9 -12.157535098780908 67.09296394555234 -0.6763578112755682 -15.447548396875016 -0.6763578112755682 -15.447548396875016 -12.159751554941527 67.09458543286509
1.0 -11.313009138922475 66.20403541474106 -0.7481378769291327 -17.04236487335341 -0.7481378769291307 -17.042364873353403 -11.315057430923323 66.20698575387573
1.1 -10.557359662049992 65.20540885246245 -0.8250444257005828 -18.61717247397622 -0.8250444257005828 -18.61717247397622 -10.559234149184853 65.20916440637629
1.2 -9.875912554512691 64.13068925405803 -0.9069949964931245 -20.171872884750726 -0.9069949964931266 -20.171872884750723 -9.877628826407328 64.1348699059412
1.3 -9.25738329781256 63.002923948285385 -0.9938976537905773 -21.70620531996157 -0.9938976537905763 -21.706205319961573 -9.258965183449817 63.007283165825996
1.4 -8.692916309083575 61.838480709938686 -1.0856491742743148 -23.2198152671072 -1.0856491742743148 -23.2198152671072 -8.694388095227382 61.842875117338004
1.5 -8.17543366523646 60.649341958807405 -1.1821352461243801 -24.712305150034283 -1.182135246124379 -24.712305150034286 -8.176816319665365 60.65369839414896
1.6 -7.699184270298804 59.444509545957565 -1.2832317334422025 -26.183270931584346 -1.2832317334422014 -26.183270931584346 -7.70049421675596 59.44879758716526
1.7 -7.259425571621209 58.23089323423588 -1.388806443247891 -27.632327997689075 -1.3888064432478922 -27.632327997689075 -7.260674848440354 58.235105324520354
1.8 -6.852194653248076 57.01389012217007 -1.498721070043378 -29.059128969770562 -1.4987210700433766 -29.059128969770562 -6.853391677405503 57.018028653758236
1.9 -6.4741407249435 55.79777366401263 -1.6128331358763182 -30.463375474173738 -1.6128331358763182 -30.463375474173738 -6.475291209729599 55.80184342345985
2.0 -6.122400535456778 54.58596214992079 -1.7309978278403981 -31.8448253967693 -1.7309978278403992 -31.8448253967693 -6.123508335122377 54.58996646852872
2.1 -5.79450430006836 53.38120888429521 -1.8530696834144655 -33.2032967674445 -1.8530696834144655 -33.20329676744449 -5.795572091652121 53.385148129830625
2.2 -5.488303662835676 52.18574024431618 -1.978904101850423 -34.53866913450663 -1.9789041018504216 -34.53866913450663 -5.489333449691237 52.18961165911103
2.3 -5.201915805550501 51.00135823569916 -2.108358675691137 -35.85088308079436 -2.108358675691137 -35.850883080794354 -5.202909261951279 51.00515645412791
2.4 -4.933679551868712 49.82951832895642 -2.2412943457081433 -37.13993838002596 -2.2412943457081447 -37.13993838002596 -4.934638240583167 49.83323615888371
2.5 -4.682120496941409 48.67138972119269 -2.37757638778067 -38.40589117843582 -2.3775763877806715 -38.40589117843583 -4.683045992573852 48.67501895089903
2.6 -4.445923009357205 47.52790285149288 -2.5170752432285477 -39.64885050143791 -2.5170752432285495 -39.64885050143791 -4.446816956032416 47.53143495968582
2.7 -4.223907524286074 46.39978749303744 -2.6596672056908814 -40.868974319005176 -2.6596672056908828 -40.868974319005176 -4.2247716504633175 46.40321421131073
2.8 -4.015011953062649 45.28760374906996 -2.805234978359266 -42.066465352916204 -2.8052349783592674 -42.066465352916204 -4.015848060523993 45.290917467854285
2.9 -3.818276326718072 44.19176761016061 -2.9536681154859075 -43.24156676786397 -2.9536681154859092 -43.241566767863965 -3.8190862658575853 44.19496164116992
3.0 -3.6328300036788184 43.1125722718141 -3.104863361809023 -44.39455785640591 -3.1048633618090244 -44.394557856395906 -3.6336156433365145 43.1156409898575
3.1 -3.457880928454393 42.05020609375491 -3.258724903044119 -45.525749801501426 -3.258724903044119 -45.525749801501426 -3.45864412557309 42.053144983471974
3.2 -3.2927065445418116 41.004767858428025 -3.415164539850613 -46.63548157906126 -3.4151645398506147 -46.635481579061256 -3.2934491167927367 41.00757349070796
3.3 -3.1366460521990143 39.976279827016285 -3.574101796887894 -47.72411604579417 -3.574101796887894 -47.72411604579417 -3.1373697552233972 39.97894978669006
3.4 -2.989093767993753 38.96469897605387 -3.7354639777108978 -48.79203624392211 -3.7354639777108978 -48.79203624392211 -2.989800277899575 38.96723175889512
3.5 -2.849493393608895 37.969926713574246 -3.8991861753395507 -49.83964194280444 -3.8991861753395494 -49.83964194280444 -2.8501842946771934 37.97232160693966
3.6 -2.7173330403533207 36.991817311535634 -4.065211247462056 -50.86734642881685 -4.065211247462054 -50.86734642881685 -2.718009817547484 36.99407426966949
3.7 -2.5921408860449633 36.030185244650895 -4.233489764372587 -51.87557354762277 -4.233489764372588 -51.87557354762277 -2.5928049216698157 36.032304766421575
3.8 -2.473481364547897 35.08481159023354 -4.403979936908865 -52.86475499741321 -4.403979936908865 -52.864754997413215 -2.474133938318013 35.08679460489219
3.9 -2.3609518067842092 34.1554496167006 -4.576647530899963 -53.83532786753772 -4.576647530899961 -53.83532786753772 -2.3615940985569024 34.15729738095439
4.0 -2.254179466744605 33.24182966695805 -4.751465773929946 -54.78773241351377 -4.751465773929945 -54.78773241351377 -2.2548125612079986 33.24354367517211
4.1 -2.1528188776938073 32.34366342643216 -4.92841525957995 -55.722410057435965 -4.9284152595799515 -55.722410057435965 -2.1534437703788125 32.34524533456586
4.2 -2.056549493132536 31.460647651941265 -5.107483853735914 -56.63980160085909 -5.107483853735914 -56.63980160085909 -2.057167097215909 31.462099214875494
4.3 -1.9650735746239296 30.592467427023855 -5.288666607068696 -57.540345636381815 -5.288666607068696 -57.540345636381815 -1.9656847280748255 30.59379044834711
4.4 -1.8781142946667675 29.738799000282693 -5.471965677337154 -58.424477143590565 -5.471965677337154 -58.42447714359055 -1.8787197674051654 29.739995293254744
4.5 -1.7954140278042128 28.89931225598857 -5.657390264806917 -59.2926262547356 -5.657390264806917 -59.29262625473559 -1.7960145286017353 28.900383614150876
4.6 -1.7167328071866277 28.07367286009169 -5.844956563804946 -60.14521717556432 -5.844956563804946 -60.14521717556433 -1.71732899015332 28.07462103601447
4.7 -1.6418469271939284 27.26154411944306 -6.034687733163661 -60.9826672472702 -6.034687733163661 -60.9826672472702 -1.6424393977229879 27.26237081002947
4.8 -1.570547675448934 26.462588587483122 -6.226613888158741 -61.805386135589345 -6.226613888158741 -61.805386135589345 -1.5711369955822119 26.463295424500966
4.9 -1.5026401798961218 25.676469446078446 -6.420772116434657 -62.61377513390134 -6.420772116434657 -62.61377513390134 -1.5032268730911726 25.677057990620593
5.0 -1.4379423585319575 24.902851689292234 -6.617206520374595 -63.40822656764534 -6.617206520374596 -63.40822656764534 -1.438526913845746 24.90332342914653
5.1 -1.3762839609728732 24.141403132507303 -6.815968288354894 -64.18912328818787 -6.815968288354894 -64.18912328818787 -1.3768668367146635 24.141759481577438
5.2 -1.3175056924530129 23.391795267274166 -7.017115797440545 -64.95683824461472 -7.017115797440545 -64.95683824461472 -1.318087319347282 23.39203756629259
5.3 -1.26145841196591 22.65370398017958 -7.220714750175013 -65.71173412285523 -7.2207147501750155 -65.71173412284523 -1.2620391958883335 22.65383349826377
5.4 -1.208002397274523 21.92681015202389 -7.426838348336466 -66.45416304195426 -7.426838348336466 -66.45416304195426 -1.2085827216308431 21.926828088647266
5.5 -1.1570066703708752 21.210800151657736 -7.635567506801587 -67.18446629795412 -7.635567506800588 -67.18446629795413 -1.1575868981573085 21.210707638796396
5.6 -1.108348377658182 20.50536623739086 -7.8469911109687125 -67.90297414612616 -7.8469911109687125 -67.90297414612616 -1.1089288532740404 20.50516434164734
5.7 -1.0619122198113282 19.810206877367595 -8.061206321653062 -68.61000561300973 -8.061206321653062 -68.61000561300973 -1.062493270663359 19.809896601942707
5.8 -1.0175899267732682 19.1250269989651 -8.278318931820584 -69.30586832966428 -8.278318931820582 -69.30586832966428 -1.0181718647062412 19.12460928558896
5.9 -0.9752797738586905 18.449538176371913 -8.498443780176697 -69.99085837800857 -8.498443780176695 -69.99085837800857 -0.9758628964538201 18.449013907005
6.0 -0.9348861353203062 17.783458764295258 -8.721705227319179 -70.66526014215023 -8.72170522731918 -70.66526014215023 -0.935470727079759 17.78282876274047
6.1 -0.8963190721382192 17.126513984796794 -8.948237701013118 -71.32934615645688 -8.948237701013117 -71.32934615645688 -0.8969054055789748 17.125779018243147
6.2 -0.8594939510803385 16.47843597375679 -9.17818631816479 -71.98337694211014 -9.178186318164787 -71.98337694211014 -0.8600822877504879 16.477596754205738
6.3 -0.8243310923931148 15.838963792307986 -9.411707592249117 -72.62760082342211 -9.411707592249119 -72.62760082342211 -0.8249216838215307 15.838020978122767
6.4 -0.7907554437233444 15.20784340839039 -9.64897023634329 -73.26225371482413 -9.648970236343288 -73.26225371482414 -0.7913485323087582 15.206797605749099
6.5 -0.7586962781016615 14.584827652628707 -9.890156073583736 -73.88755886839637 -9.890156073583732 -73.88755886839637 -0.7592920979455828 14.583679417121628
6.6 -0.728086914018809 13.969676152514818 -10.135461068827958 -74.50372657111717 -10.135461068827954 -74.50372657111717 -0.72868569170571 13.968425990786464
6.7 -0.69886445580599 13.362155248187305 -10.385096497688142 -75.11095377941992 -10.385096497688142 -75.11095377941992 -0.6994664111302017 13.360803619653579
6.8 -0.6709695526908049 12.762037892820812 -10.639290271758684 -75.70942367699583 -10.639290271758684 -75.70942367699583 -0.6715748993321956 12.760585211521754
6.9 -0.6443461750473284 12.169103540367688 -10.89828844252442 -76.29930513970046 -10.89828844252442 -76.29930513970048 -0.6449551211939566 12.167550176856
7.0 -0.6189414064859645 11.583138022804638 -11.162356910086544 -76.88075208831141 -11.16235691008654 -76.88075208831141 -0.619554155405953 11.581484306120407
7.1 -0.5947052505496258 11.003933419007065 -11.43178336802173 -77.45390270663484 -11.431783368021733 -77.45390270663484 -0.5953220011107062 11.002179638718895
7.2 -0.5715904508859091 10.431287917003743 -11.706879521567362 -78.01887849786922 -11.706879521567362 -78.01887849786922 -0.5722113980249434 10.429434325266534
7.3 -0.549552323863411 9.865005671136526 -11.987983623463185 -78.57578314635283 -11.98798362346319 -78.57578314635283 -0.550177659004664 9.863052484785117
7.4 -0.5285486026834743 9.304896655524644 -12.27546338082011 -79.12470114484346 -12.275463380820113 -79.12470114484346 -0.5291785141105134 9.302844058120467
7.5 -0.5085392921239387 8.750776514928104 -12.569719297316489 -79.66569613797775 -12.569719297316485 -79.66569613797775 -0.5091739653040404 8.748624658791968
7.6 -0.4894865331144135 8.202466414081586 -12.87118852846233 -80.19880892114801 -12.87118852846233 -80.19880892114801 -0.49012615098002205 8.200215422266858
7.7 -0.4713544764155447 7.659792886347323 -13.18034934503181 -80.72405501861427 -13.18034934503181 -80.72405501861427 -0.4719992196056371 7.657442854525381
7.8 -0.454109164729577 7.1225876824400105 -13.49772632070435 -81.24142174512949 -13.49772632070435 -81.24142174512949 -0.4547592117935934 7.120138680696272
7.9 -0.43771842262504423 6.590687619863081 -13.823896387214576 -81.75086462977615 -13.823896387214576 -81.75086462977615 -0.43837395019275505 6.588139694374494
8.0 -0.42215175370577446 6.063934433606224 -14.159495934621397 -82.25230304688196 -14.1594959346214 -82.25230304688196 -0.4228129366288953 6.061287608193367
8.1 -0.4073802445035666 5.542174628560225 -14.50522917831636 -82.74561485442317 -14.50522917831636 -82.74561485442317 -0.4080472559704629 5.539428906107007
8.2 -0.393376474610925 5.025259334038908 -14.861878071701582 -83.2306297801535 -14.861878071701582 -83.2306297801535 -0.39404948623956443 5.022414697769834
8.3 -0.380114432608069 4.513044160721876 -15.230314117757295 -83.70712121539741 -15.230314117757294 -83.70712121539741 -0.3807936145214468 4.510100575331929
8.4 -0.36756943737664743 4.005389060289788 -15.611512530999159 -84.1747959656957 -15.611512530999159 -84.1747959656957 -0.3682549582638455 4.002346472933838
8.5 -0.35571806442025644 3.5021581879596404 -16.006569331735612 -84.63328135560228 -16.00656933173561 -84.63328135560228 -0.3564100915870178 3.499016529101373
8.6 -0.34453807684198373 3.0032197680865065 -16.41672213017508 -85.08210887237092 -16.416722130175078 -85.08210887237092 -0.3452367762529473 2.999978952210807
8.7 -0.3340083606563401 2.5084459629711766 -16.843375596443472 -85.520693232 -16.843375596443472 -85.520693232 -0.3347138969741399 2.505105889168834
8.8 -0.32410886413737405 2.017712744963874 -17.28813294096168 -85.94830531981482 -17.28813294096168 -85.94830531981482 -0.3248214007593258 2.0142732973975974
8.9 -0.31482054092503653 1.530899771925327 -17.752835188303475 -86.36403682815597 -17.752835188303475 -86.36403682815597 -0.31554024002038594 1.5273608201938882
9.0 -0.3061252966373907 1.0478902661052703 -18.239610676053587 -86.7667534817125 -18.23961067605359 -86.7667534817125 -0.30685231918755546 1.0442516655056975
9.1 -0.29800593874780945 0.568570896448654 -18.75093814361619 -87.15503233431927 -18.75093814361619 -87.15503233431926 -0.29874044459006177 0.5648324881616136
9.2 -0.29044612951151344 0.09283166432636074 -19.289728141573747 -87.52707645646741 -19.289728141573743 -87.52707645646741 -0.29118827738856123 0.08899327553351852
9.3 -0.28343034173658904 -0.3794342073039628 -19.859429529286214 -87.88059692640692 -19.859429529286214 -87.88059692640692 -0.2841802893524881 -0.38337276336124093
9.4 -0.2769438172109343 -0.8483303813514752 -20.464170933380732 -88.21264654667064 -20.464170933380732 -88.21264654666062 -0.27770172129309595 -0.8523693053546522
9.5 -0.27097252761154406 -1.3139575106867585 -21.10895188233173 -88.51938060967873 -21.108951882331738 -88.51938060966874 -0.27173854398011005 -1.3180970172534472
9.6 -0.26550313773256784 -1.7764133389278944 -21.799906091111456 -88.79570449567348 -21.799906091111456 -88.79570449567348 -0.2662774213773533 -1.7806536566447584
9.7 -0.26052297088338594 -2.2357927979717416 -22.544672171510975 -89.03474040401285 -22.54467217151097 -89.03474040401285 -0.2613056760464174 -2.2401341694398673
9.8 -0.2560199763147097 -2.692188102335946 -23.352928895781695 -89.22699496215301 -23.352928895781695 -89.22699496214302 -0.25681125658003495 -2.696630784209205
9.9 -0.25198269854462446 -3.145688840362122 -24.237190909097247 -89.35901211313873 -24.23719090909725 -89.35901211313873 -0.252782706933766 -3.1502331033906468
10.0 -0.24840024846270065 -3.5963820623782414 -25.214032713685977 -89.41109801973141 -25.214032713685977 -89.41109801973141 -0.24920913753482068 -3.6010281914288895
10.1 -0.24526227610022874 -4.044352365857231 -26.3060493604737 -89.35327728618405 -26.306049360473708 -89.35327728617405 -0.2460801980567753 -4.049100659920301
10.2 -0.24255894496177793 -4.489681977685246 -27.54515472948714 -89.13764275202293 -27.54515472948714 -89.13764275201292 -0.24338605175510436 -4.4945327498607375
10.3 -0.24028090782089287 -4.932450833579225 -28.97847338985761 -88.68270834146517 -28.978473389857605 -88.68270834146517 -0.2411173512652141 -4.937404411037948
10.4 -0.23841928388856512 -5.372736654763284 -30.679687957695293 -87.8380221979423 -30.679687957695293 -87.83802219793229 -0.2392652157733633 -5.377793378685108
10.5 -0.23696563727141562 -5.8106150219645585 -32.77309683231388 -86.2925932172489 -32.77309683230389 -86.29259321723892 -0.23782120947616503 -5.815775247449143
10.6 -0.23591195663876846 -6.2461594468041275 -35.49127836075566 -83.28808030820656 -35.49127836075566 -83.28808030819657 -0.23677732124826154 -6.251423542761461
10.7 -0.2352506360269725 -6.679441440680724 -39.33305979990695 -76.41644580015227 -39.33305979990695 -76.41644580013227 -0.2361259454472679 -6.684809789695809
10.8 -0.23497445671108624 -7.110530581196867 -45.350785325504084 -53.66382358902134 -45.350785325504084 -53.66382358899134 -0.2358598637851455 -7.116003579376947
10.9 -0.23507657007984722 -7.539494576233181 -47.284167755149646 23.826673859005485 -47.28416775513964 23.826673858965485 -0.23597222820303465 -7.545072633032827
11.0 -0.23555048145571095 -7.966399325718598 -40.7683650831091 58.386875927381304 -40.76836508310911 58.38687592734128 -0.2364565446901791 -7.972082863758055
11.1 -0.23639003480161877 -8.391308981197197 -36.514373271027964 67.44819992488829 -36.514373271027964 67.4481999248783 -0.23730665799050998 -8.397098436056451
11.2 -0.2375893982639321 -8.814286003236495 -33.61053617148903 71.13991667644999 -33.61053617148903 71.13991667643998 -0.23851673714507016 -8.82018182325137
11.3 -0.23914305050208332 -9.235391216774918 -31.429488403540237 72.99026865420993 -31.42948840354024 72.99026865419992 -0.2400812618204715 -9.241393862822694
11.4 -0.24104576775963674 -9.654683864464321 -29.689243440622718 74.0043612694075 -29.689243440622715 74.0043612694075 -0.24199500938050317 -9.660793809744266
11.5 -0.24329261163296628 -10.072221658068289 -28.24416581070914 74.57079208495087 -28.24416581070914 74.57079208495087 -0.24425304265409603 -10.07843938788961
11.6 -0.2458789174982706 -10.48806082801714 -27.01005668859252 74.87049024643724 -27.01005668859252 74.87049024643726 -0.24685069836345563 -10.494386839558778
11.7 -0.24880028355943382 -10.902256171109434 -25.934053650695148 74.99885562350042 -25.934053650695148 74.99885562350042 -0.24978357617230426 -10.908690973232176
11.8 -0.25205256048125574 -11.314861096539833 -24.98086022826793 75.01088121258601 -24.98086022826793 75.01088121258601 -0.25304752832066646 -11.321405209557255
11.9 -0.2556318415754463 -11.725927670171219 -24.125763742629974 74.94046640905451 -24.125763742629974 74.94046640905451 -0.25663864981254597 -11.732581625659959
12.0 -0.25953445350687043 -12.135506657273865 -23.350799179388453 74.80962940618177 -23.350799179388453 74.80962940618176 -0.2605532691255389 -12.142270997846794
12.1 -0.2637569474953083 -12.54364756359671 -22.64250286776871 74.63328314506788 -22.64250286776871 74.63328314506789 -0.2647879394141786 -12.550522842749428
12.2 -0.26829609097919677 -12.950398675040356 -21.990527410084617 74.42188056723364 -21.99052741008462 74.42188056723364 -0.269339430178713 -12.957385456891766
12.3 -0.273148859722137 -13.355807095772095 -21.386750480159225 74.18296079104536 -21.386750480159225 74.18296079104536 -0.2742047193752044 -13.362905954949373
12.4 -0.27831243033403724 -13.759918785002409 -20.824680532395575 73.92209420783765 -20.824680532395575 73.92209420782767 -0.2793809859417236 -13.76713030640121
12.5 -0.2837841731862919 -14.162778592403246 -20.299048275567777 73.64348240402481 -20.299048275567777 73.64348240402481 -0.2848656027185479 -14.170103371023622
12.6 -0.28956164569920595 -14.564430292207772 -19.805518402982358 73.35035148745996 -19.805518402982354 73.35035148745996 -0.2906561297425373 -14.571868932946472
12.7 -0.2956425859826678 -14.964916616011681 -19.340481500009638 73.04521728377317 -19.340481500009638 73.04521728377317 -0.29675030789340384 -14.97246973351145
12.8 -0.30202490680989325 -15.36427928447579 -18.900900800805612 72.73006857312753 -18.900900800805616 72.73006857312753 -0.30314605287490315 -15.371947502862412
12.9 -0.30870668990864625 -15.762559037750108 -18.484197326783708 72.40649646017398 -18.484197326783708 72.40649646017398 -0.30984144951356185 -15.770342990447833
13.0 -0.3156861805521839 -16.159795664789176 -18.08816242890698 72.0757874820446 -18.088162428906983 72.07578748204459 -0.3168347463574558 -16.167695994275235
13.1 -0.32296178243432805 -16.556028031618634 -17.710890249960343 71.73899177834431 -17.71089024996034 71.73899177834431 -0.3241243505597199 -16.56404538919761
13.2 -0.33053205281587916 -16.951294108552975 -17.350724902623085 71.39697377938148 -17.350724902623085 71.39697377938147 -0.3317088230335239 -16.9594291540518
13.3 -0.33839569792558316 -17.345630996354537 -17.00621867802146 71.05045042595685 -17.00621867802146 71.05045042595685 -0.3395868738619158 -17.353884397818867
13.4 -0.3465515686063147 -17.73907495143353 -16.676098632851566 70.70002035587147 -16.676098632851563 70.70002035587147 -0.3477573579536509 -17.74744738481633
13.5 -0.35499865619123117 -18.131661410169173 -16.35923961789227 70.34618645208295 -16.35923961789227 70.34618645208295 -0.3562192709282616 -18.140153558912395
13.6 -0.3637360886007447 -18.523425012192014 -16.054642313638375 69.98937344831072 -16.054642313638375 69.98937344831072 -0.3649717452227951 -18.53203756686203
13.7 -0.37276312664796774 -18.914399622956967 -15.761415198043968 69.62994181039993 -15.761415198043967 69.62994181039993 -0.3740140464072795 -18.923133280715017
13.8 -0.38207916054354174 -19.304618355297706 -15.478759631035814 69.26819878029413 -15.478759631035814 69.26819878029413 -0.38334556969895517 -19.31347381942588
13.9 -0.3916837065897511 -19.694113590311755 -15.20595743127701 68.90440723611673 -15.20595743127701 68.90440723611673 -0.3929658366664041 -19.70309156962572
14.0 -0.40157640405489914 -20.082916997356676 -14.942360461720778 68.53879285548109 -14.942360461720781 68.53879285548109 -0.40287449211364723 -20.092018205546037
