! Created with skrf 1.12.0 (http://scikit-rf.org).
# GHz S DB R 50.0 
!freq dBS11 angS11 dBS21 angS21 dBS12 angS12 dBS22 angS22
0.01 -27.289266278773088 3.443275560773458 -0.3829253168080526 -0.18101755889529664 -0.38292531680815534 -0.18101755889139662 -27.28926781453368 3.4431896274640725
0.02 -27.239074969469005 6.859357192104751 -0.3831093805753966 -0.3620144960083164 -0.3831093805754984 -0.3620144960063164 -27.23906816341617 6.8591771585700805
0.1 -25.874808290015544 30.724716145050518 -0.38891670301900205 -1.8069968840712773 -0.388916703019 -1.8069968840702775 -25.874621647846936 30.722761114347936
0.2 -23.196533838506497 48.81364588150505 -0.4061795279197532 -3.5971424682672386 -0.4061795279197542 -3.5971424682672377 -23.196332934738816 48.80663987138668
0.3 -20.693914349375614 57.99455645315886 -0.4327785493478254 -5.36221793459462 -0.4327785493479217 -5.362217934593619 -20.69431754425553 57.98249039436963
0.4 -18.599050732874545 62.6836124776333 -0.4671373570900378 -7.1020266572577935 -0.46713735709003884 -7.102026657257794 -18.60044716956381 62.66994414444403
0.5 -16.8572965364812 65.04269049454648 -0.5083875735107839 -8.819158770849857 -0.5083875735107849 -8.819158770849855 -16.859572261234142 65.03131553727546
0.6 -15.390321489852148 66.09887937765676 -0.5561428663024802 -10.515778535892649 -0.5561428663024812 -10.515778535892652 -15.39308150543899 66.09175716055782
0.7 -14.135602253648738 66.3767008130232 -0.6102299566038187 -12.19291953199365 -0.6102299566038208 -12.192919531993653 -14.138470219684038 66.3738514765965
0.8 -13.047213464215163 66.16463939202595 -0.670540138128705 -13.850689337887623 -0.670540138128705 -13.850689337887623 -13.049952477207025 66.16513469690169
0.9 -12.09165176103578 65.63171757596864 -0.7369633430908991 -15.488609905422836 -0.7369633430908991 -15.488609905422832 -12.094154706576592 65.634451122456
1.0 -11.244159520824208 64.88233638875437 -0.8093646381812987 -17.105902464044735 -0.8093646381811981 -17.10590246404474 -11.246403099273763 64.88637207606602
1.1 -10.486104210169625 63.98391944067431 -0.8875810068112533 -18.701683624932976 -0.8875810068111529 -18.701683624932976 -10.488108835302683 63.988580629179715
1.2 -9.803191011667717 62.9816935325098 -0.9714262558878455 -20.275083860893144 -0.9714262558877462 -20.275083860893147 -9.804994776722806 62.9865415404834
1.3 -9.18424803986555 61.90699473726628 -1.0606979867779032 -21.82531134109903 -1.0606979867779063 -21.825311341099024 -9.185892124897563 61.91177425183689
1.4 -8.620392556421557 60.782141037359004 -1.1551841161225962 -23.351681713716694 -1.155184116122595 -23.351681713716697 -8.621914062394074 60.78672458486809
1.5 -8.104450168526068 59.62340149578603 -1.254668175941839 -24.853628269623293 -1.2546681759418412 -24.853628269623293 -8.105879306210317 59.62774368798295
1.6 -7.630543502278039 58.442868326322944 -1.358933347317729 -26.33070149274792 -1.3589333473177267 -26.330701492747917 -7.6319031464754525 58.44697178950949
1.7 -7.193795936329284 57.24967421780999 -1.4677654242509441 -27.782563267392778 -1.4677654242509455 -27.78256326739278 -7.195102343498285 57.25356591356911
1.8 -6.790114651567983 56.05080634446163 -1.5809549473265703 -29.208978698580395 -1.5809549473265738 -29.208978698580403 -6.791378647280199 56.05452211231593
1.9 -6.416029229662199 54.85166463727376 -1.698298719575093 -30.60980714084952 -1.698298719575094 -30.609807140859527 -6.417257485811141 54.855239815521
2.0 -6.068569773970852 53.656453524942734 -1.819600872426932 -31.98499325503466 -1.8196008724269344 -31.984993255034667 -6.069765983784867 53.65991784021572
2.1 -5.7451735849938625 52.468462561476656 -1.944673607265942 -33.33455848078532 -1.9446736072659445 -33.334558480795316 -5.746339453633968 52.471837876430214
2.2 -5.443612771480005 51.29027124918856 -2.073337703508418 -34.65859307940881 -2.073337703507419 -34.65859307940881 -5.444748801298685 51.29357112375761
2.3 -5.161937425886542 50.12390108922156 -2.2054228577284545 -35.9572487804887 -2.2054228577284545 -35.9572487804887 -5.163043507365592 50.1271314124523
2.4 -4.898430522649205 48.97093021270352 -2.3407678990649448 -37.23073200900048 -2.340767899064946 -37.23073200900048 -4.899506356600356 48.97409039669117
2.5 -4.651571753652576 47.832581033792096 -2.4792209123633677 -38.479297645944065 -2.4792209123633677 -38.47929764594407 -4.652617134898142 47.835665434189906
2.6 -4.420008254232499 46.709788154480194 -2.6206392909487874 -39.70324327137309 -2.6206392909487857 -39.70324327137309 -4.421023246366445 46.712787507516275
2.7 -4.202530697315547 45.60325161164871 -2.7648897343694667 -40.90290384188259 -2.764889734369465 -40.902903841882605 -4.203515724971641 45.606154363697165
2.8 -3.998053610082946 44.5134791031525 -2.9118482021164755 -42.07864676233239 -2.9118482021164738 -42.078646762332404 -3.999009491021802 44.51627256801286
2.9 -3.805599041780636 43.440819827429415 -3.0613998314711255 -43.23086731883106 -3.0613998314711255 -43.23086731883106 -3.806526976900537 43.44349114462214
3.0 -3.62428291326578 42.385491867609055 -3.2134388258391673 -44.359984447258604 -3.2134388258391686 -44.35998444725861 -3.625184448820702 42.38802875915334
3.1 -3.4533035293247427 41.34760455232573 -3.3678683187971648 -45.46643681679377 -3.367868318797166 -45.46643681679377 -3.45418050229445 41.349995889753245
3.2 -3.291931847991254 40.327176865842304 -3.524600218379501 -46.55067921226328 -3.524600218379501 -46.55067921226328 -3.292786322808723 40.32941306702045
3.3 -3.139503187121935 39.32415271966119 -3.6835550357214193 -47.613179201350114 -3.6835550357214193 -47.613179201350114 -3.140337389744105 39.326225998422316
3.4 -2.9954101144503404 38.338413705579406 -3.8446617018453537 -48.65441407484117 -3.8446617018453537 -48.65441407484117 -2.996226367996833 38.34031819799339
3.5 -2.8590963182982687 37.369789808812314 -4.007857376225004 -49.674868048217114 -4.007857376225004 -49.67486804821711 -2.859896983117371 37.37152159912545
3.6 -2.7300512958445546 36.418068453274515 -4.1730872505259295 -50.67502971352509 -4.1730872505259295 -50.67502971352509 -2.7308387158298775 36.41962552074291
3.7 -2.607805726977807 35.48300217172467 -4.340304350777019 -51.65538973000267 -4.34030435077702 -51.65538973000267 -2.6085821831548675 35.48438427738308
3.8 -2.491927426320345 34.56431513259905 -4.509469341048799 -52.61643874157509 -4.509469341048799 -52.61643874157509 -2.492695098143304 34.56552366253783
3.9 -2.3820177855376343 33.661708709254235 -4.6805503314973205 -53.55866550890289 -4.6805503314973205 -53.558665508902884 -2.3827787199052 33.66274648874815
4.0 -2.2777086336073578 32.774866241699954 -4.853522693489614 -54.48255524321971 -4.853522693489614 -54.4825552432197 -2.2784647212912974 32.77573733204298
4.1 -2.1786594552169296 31.903457113008784 -5.028368884271609 -55.388588128741915 -5.0283688842716066 -55.388588128741915 -2.1794124142139464 31.90416660100917
4.2 -2.0845549175514986 31.04714024122665 -5.205078283503088 -56.27723802031549 -5.205078283503087 -56.27723802031549 -2.0853062826972573 31.047694029206003
4.3 -1.995102663897343 30.205567070068536 -5.383647043758972 -57.14897130280643 -5.383647043757972 -57.14897130280643 -1.9958537820327384 30.20597167264868
4.4 -1.9100313391318533 29.378384128545104 -5.564077956974906 -58.00424589874502 -5.564077956973906 -58.00424589874502 -1.9107833690662663 29.378646480915613
4.5 -1.8290888176302253 28.565235218197827 -5.746380338626947 -58.84351041094618 -5.746380338626945 -58.84351041094618 -1.829842734137861 28.565362499257013
4.6 -1.7520406085718834 27.765763278083742 -5.930569931347226 -59.66720338703218 -5.930569931347226 -59.66720338703218 -1.7527972097021383 27.765762750815167
4.7 -1.6786684173372453 26.979611970163567 -6.116668829565956 -60.475752693217544 -6.116668829565959 -60.47575269321753 -1.6794283343346343 26.979490840539643
4.8 -1.6087688447423407 26.206427021790063 -6.304705426721232 -61.269574985070264 -6.3047054267202345 -61.26957498508026 -1.6095325539512897 26.206192316774178
4.9 -1.542152208408702 25.44585735691705 -6.494714386529951 -62.04907526353903 -6.494714386528954 -62.04907526353903 -1.5429200445725826 25.445515821595105
5.0 -1.4786414727005337 24.697556043552197 -6.686736639843653 -62.814646504810476 -6.6867366398436525 -62.814646504810476 -1.479413643160672 24.69711405668408
5.1 -1.418071275457089 23.96118108111927 -6.88081940862631 -63.56666935355761 -6.88081940862631 -63.5666693535676 -1.4188478747969668 23.960644588361024
5.2 -1.3602870412791428 23.236396048698907 -7.077016258688701 -64.30551186894593 -7.077016258688701 -64.30551186894591 -1.3610680660453889 23.235770512095453
5.3 -1.305144172375429 22.52287063212791 -7.275387182929327 -65.03152931392151 -7.275387182929328 -65.03152931392152 -1.3059295355544533 22.522160994616826
5.4 -1.252507309123233 21.820281046020515 -7.475998716991934 -65.74506397833194 -7.475998716991937 -65.74506397833194 -1.2532968541311789 21.81949170929677
5.5 -1.202249653394026 21.128310364435762 -7.678924089465494 -66.44644502691878 -7.678924089465493 -66.44644502691878 -1.2030431673715887 21.12744517872752
5.6 -1.154252348527766 20.446648772557268 -7.8842434089962286 -67.13598836352858 -7.884243408996228 -67.13598836352857 -1.1550495747945195 20.445711036662825
5.7 -1.1084039105084038 19.77499375000274 -8.092043891013187 -67.81399650315718 -8.092043891013187 -67.81399650315718 -1.1092045600780995 19.773986220058585
5.8 -1.0645997055378462 19.113050195181778 -8.302420127130624 -68.48075844347103 -8.30242012713062 -68.48075844347103 -1.0654034676172115 19.1119751007519
5.9 -1.0227414696895192 18.460530498981424 -8.515474400736226 -69.1365495275477 -8.515474400736228 -69.1365495275577 -1.0235480211330101 18.45938956504797
6.0 -0.98273686679885 17.817154574939632 -8.731317052801241 -69.7816312894771 -8.731317052801241 -69.78163128947709 -0.9835458805187175 17.81594904858513
6.1 -0.94449908116193 17.18264985237777 -8.950066902533088 -70.41625127405355 -8.950066902533091 -70.41625127405354 -0.94531023349141 17.181380533008937
6.2 -0.9079464419392316 16.55675123794312 -9.1718517282482 -71.04064282159884 -9.171851728248201 -71.04064282159882 -0.9087594189997203 16.55541850994679
6.3 -0.8730020764961516 15.939201050443616 -9.39680881462545 -71.65502480820534 -9.396808814625446 -71.65502480820534 -0.8738165796047946 15.93780491761478
6.4 -0.8395935901756193 15.329748933376534 -9.625085573520547 -72.25960133074786 -9.625085573520547 -72.25960133074786 -0.8404093403537777 15.328289054059077
6.5 -0.8076527702454693 14.728151748673865 -9.856840246627547 -72.8545613251627 -9.856840246627547 -72.8545613251627 -0.8084695118900405 14.726627471214057
6.6 -0.7771153119803065 14.134173455156384 -10.092242699650548 -73.44007810490245 -10.092242699650548 -73.44007810490245 -0.7779328157663914 14.132583852899803
6.7 -0.7479205650294583 13.547584974309494 -10.331475319222609 -74.01630880466399 -10.331475319222609 -74.01630880466399 -0.7487386301134263 13.545928879861465
6.8 -0.7200112983965651 12.968164046013174 -10.574734025655587 -74.58339371232786 -10.574734025655593 -74.58339371232786 -0.7208297539902742 12.966440084303352
6.9 -0.6933334825103425 12.395695076368932 -10.822229416865916 -75.1414554692767 -10.822229416865918 -75.1414554692767 -0.6941521888946125 12.3939016962503
7.0 -0.667836087004523 11.829968979406324 -11.074188061499797 -75.69059811559052 -11.074188061499797 -75.6905981155905 -0.6686549360479885 11.82810448357893
7.1 -0.6434708929481023 11.27078301433178 -11.330853962260504 -76.23090595260629 -11.330853962260504 -76.2309059526163 -0.6442898081952585 11.268845587471828
7.2 -0.6201923183811477 10.717940619762288 -11.5924902146324 -76.76244218959016 -11.592490214632402 -76.76244218959016 -0.6210112547685294 10.715928354706623
7.3 -0.5979572561094311 10.171251246076512 -11.859380890202068 -77.28524733486906 -11.859380890202068 -77.28524733486907 -0.5987761993659517 10.169162168023133
7.4 -0.5767249228043851 9.630530186943725 -12.131833179987057 -77.79933728336052 -12.131833179987057 -77.79933728336052 -0.5775438885854566 9.628362275680516
7.5 -0.5564567185351617 9.095598410942072 -12.41017983941257 -78.30470104166784 -12.410179839412569 -78.30470104166784 -0.5572757513381855 9.09334962106302
7.6 -0.5371160959356731 8.566282393930225 -12.694781985166479 -78.80129801908905 -12.694781985166479 -78.80129801908905 -0.5379352678382272 8.563950673145515
7.7 -0.5186684382741653 8.042413952916764 -12.986032304132959 -79.28905479572715 -12.986032304132957 -79.28905479573713 -0.5194878475327436 8.039997258458982
7.8 -0.5010809457569119 7.523830081883353 -13.284358747514942 -79.76786125780026 -13.28435874751494 -79.76786125780026 -0.5019007153000516 7.521326395112935
7.9 -0.4843225294514618 7.010372790037509 -13.590228798545727 -80.23756596255939 -13.590228798545727 -80.23756596255939 -0.4851428052960916 7.00778012932576
8.0 -0.4683637122640885 6.501888942854048 -13.904154422089853 -80.69797056011248 -13.904154422089853 -80.69797056011248 -0.46918466188165947 6.499205374839837
8.1 -0.4531765364553445 5.998230106214812 -14.226697829143436 -81.14882305306283 -14.226697829143436 -81.14882305306283 -0.45399834710980685 5.995453755529117
8.2 -0.43873447721527303 5.499252393869406 -14.558478220514168 -81.58980961484029 -14.558478220514168 -81.58980961484028 -0.43955735429271453 5.496381451440844
8.3 -0.42501236186197355 5.004816318433529 -14.900179714241055 -82.02054460750414 -14.900179714241055 -82.02054460750414 -0.42583652720740334 5.001849048461934
8.4 -0.41198629425757755 4.514786646047316 -15.252560712903989 -82.44055833375582 -15.252560712903989 -82.44055833375582 -0.4128119845339985 4.511721391760499
8.5 -0.39963358407230387 4.029032254813124 -15.61646503430337 -82.84928191448037 -15.616465034303369 -82.84928191448037 -0.40046104915249686 4.025867443096808
8.6 -0.387932680551913 3.5474259970760684 -15.992835216659667 -83.24602848854546 -15.992835216659662 -83.24602848854546 -0.3887621819528741 3.544160142085054
8.7 -0.37686311047310683 3.06984456561248 -16.382728526283206 -83.62996966405683 -16.38272852628321 -83.62996966405683 -0.37769491984086295 3.0664762714400537
8.8 -0.36640541999486487 2.5961683637214805 -16.787336350734087 -84.00010577803877 -16.787336350734083 -84.00010577804876 -0.3672398176455874 2.5926963262290426
8.9 -0.3565411201357965 2.1262813792307087 -17.208007870782303 -84.35522799739894 -17.208007870792304 -84.35522799740895 -0.357378393657377 2.1227043871235836
9.0 -0.3472526356291099 1.6600710624082045 -17.6462791911382 -84.69386954589672 -17.646279191148192 -84.69386954589672 -0.3480930785468126 1.6563879976175782
9.1 -0.3385232569233099 1.1974282077253853 -18.103909506553176 -85.01424225790356 -18.103909506553176 -85.01424225790356 -0.3393671674320578 1.193638045191309
9.2 -0.33033709511648385 0.738246839438984 -18.58292643635077 -85.3141530641053 -18.58292643635077 -85.3141530641053 -0.3311847748806598 0.7343486463540408
9.3 -0.3226790396266405 0.28242410093035386 -19.08568345156804 -85.59089262426505 -19.08568345156804 -85.59089262426505 -0.3235307926482733 0.2784170355072884
9.4 -0.3155347184145599 -0.17013985226179956 -19.614933462477374 -85.84108467321643 -19.614933462477374 -85.84108467322642 -0.31639084996951616 -0.1742565424373127
9.5 -0.3088904605908555 -0.6195419557921573 -20.17392431631865 -86.0604789570158 -20.17392431631865 -86.0604789570158 -0.3097512762324756 -0.6237689357697439
9.6 -0.3027332612484426 -1.0658763363179418 -20.76652447563175 -86.24366155828383 -20.76652447563175 -86.24366155828383 -0.303599065878321 -1.0702141861028112
9.7 -0.29705074837619116 -1.5092344078530784 -21.397391004529563 -86.38364154800492 -21.397391004529563 -86.38364154800492 -0.297921845378939 -1.5136836249897232
9.8 -0.2918311517178206 -1.949704964751391 -22.072198028231305 -86.47124785982437 -22.072198028231305 -86.47124785982437 -0.2927078421598644 -1.9542659671357905
9.9 -0.28706327344927585 -2.3873742714101236 -22.797953523906237 -86.4942267080129 -22.797953523906237 -86.4942267080129 -0.28794585533899403 -2.3920474002834307
10.0 -0.28273646056081997 -2.8223261487806646 -23.583448297237872 -86.43585122062754 -23.583448297237872 -86.43585122062755 -0.28362522816705527 -2.827111671883603
10.1 -0.27884057883108304 -3.2546420577914525 -24.43990821483842 -86.2727069570393 -24.43990821483842 -86.2727069570393 -0.2797358220596172 -3.259540172631217
10.2 -0.2753659882959008 -3.6844011797529235 -25.38196862509374 -85.97102476780607 -25.38196862509374 -85.97102476780607 -0.2762679921195458 -3.6894120169728395
10.3 -0.2723035201161631 -4.111680493863102 -26.42917709331868 -85.48032236952167 -26.42917709331868 -85.48032236952167 -0.2732125640576871 -4.11680412067527
10.4 -0.2696444547572355 -4.536554851880499 -27.60839512932265 -84.72175574069955 -27.60839512932265 -84.72175574069955 -0.2705608124213106 -4.541791275553666
10.5 -0.2673805013991214 -4.959097050073926 -28.957789241845738 -83.56530185406162 -28.95778924184573 -83.56530185406162 -0.2683044400521311 -4.964446221443899
10.6 -0.2655037785012192 -5.379377898537977 -30.53372341827505 -81.78120773184145 -30.53372341827505 -81.78120773185144 -0.2664355586956729 -5.384839715527792
10.7 -0.26400679545133376 -5.797466287941847 -32.42293823018145 -78.9253726008618 -32.42293823018145 -78.9253726008618 -0.264946670692619 -5.803040599082006
10.8 -0.262882435231721 -6.213429253827205 -34.762727511726645 -74.03108530235619 -34.762727511726645 -74.03108530235619 -0.2638306516853662 -6.21911586175831
10.9 -0.2621239380430213 -6.627332038523926 -37.75342378333059 -64.646380880974 -37.753423783340594 -64.64638088098398 -0.2630807342795436 -6.633130703457963
11.0 -0.26172488582629166 -7.039238150759379 -41.40211320287917 -43.73088154875946 -41.40211320288916 -43.730881548759456 -0.26269049260221233 -7.045148593918023
11.1 -0.2616791876305723 -7.449209423068133 -43.304511226822235 -0.8714694207476706 -43.304511226822235 -0.8714694207288706 -0.2626538277026284 -7.4552313300513715
11.2 -0.26198106577658037 -7.8573060670468 -40.48162485926194 36.523991287150025 -40.48162485927193 36.52399128717003 -0.26296495374743784 -7.863439091163242
11.3 -0.26262504276811444 -8.263586726561922 -36.998571246371334 53.259946007687844 -36.998571246371334 53.259946007697856 -0.2636183849623362 -8.26983049208212
11.4 -0.26360592890918433 -8.66810852896663 -34.249464382733265 61.07001463443445 -34.249464382733265 61.070014634434465 -0.2646089232764236 -8.674462634310832
11.5 -0.2649188105845943 -9.070927134401039 -32.0949544007695 65.29469622036923 -32.0949544007695 65.29469622037924 -0.2659316466289042 -9.077391155251657
11.6 -0.2665590391667009 -9.472096783248082 -30.348695526650186 67.82309294035998 -30.348695526650182 67.82309294035998 -0.26758189790017545 -9.47867027558639
11.7 -0.26852222051159913 -9.87167034182182 -28.889039698303453 69.43263120749427 -28.88903969830345 69.43263120750424 -0.2695552744305223 -9.878352844878165
11.8 -0.2708042050121544 -10.26969934632493 -27.638842193755366 70.49301999146849 -27.638842193755366 70.49301999147848 -0.271847618094694 -10.27649038545597
11.9 -0.2734010781754044 -10.666234045190425 -26.547440252460042 71.20058250965465 -26.547440252460042 71.20058250965465 -0.27445500589874827 -10.673133134632725
12.0 -0.2763091516966646 -11.061323439785351 -25.580165138540025 71.66866516788528 -25.580165138540025 71.66866516788528 -0.27737374107209256 -11.068330085379865
12.1 -0.27952495500004204 -11.455015323639486 -24.71239165874684 71.9670879959461 -24.71239165874684 71.9670879959461 -0.2806003446256319 -11.462129025421303
12.2 -0.2830452272222267 -11.84735632015084 -23.926059333301776 72.14112705970693 -23.926059333301776 72.14112705970693 -0.28413154735112095 -11.85457657488174
12.3 -0.28686690961354877 -12.238391918938943 -23.207556935816914 72.22139063340083 -23.207556935816914 72.22139063341083 -0.28796428223651205 -12.245718222491185
12.4 -0.2909871383342811 -12.62816651075988 -22.546385895696233 72.22929429271127 -22.546385895696236 72.22929429271126 -0.29209567727606206 -12.635598360481708
12.5 -0.29540323762403276 -13.016723421142887 -21.93428600614704 72.18025952387784 -21.93428600614704 72.18025952387784 -0.2965230486526368 -13.024260318086325
12.6 -0.30011271332598644 -13.404104942758545 -21.364645682681495 72.08566636784006 -21.36464568268149 72.08566636784006 -0.30124389427216175 -13.411746393839941
12.7 -0.30511324674405743 -13.790352366568449 -20.832093234048298 71.95409082727 -20.832093234048298 71.95409082727001 -0.3062558876330421 -13.798097886622346
12.8 -0.31040268881876354 -14.175506011816363 -20.332206731824645 71.79211462915285 -20.332206731824645 71.79211462915285 -0.31155687201022375 -14.183355125563287
12.9 -0.3159790546022422 -14.559605254820749 -19.861303659178212 71.6048701400564 -19.861303659178212 71.6048701400564 -0.317144854940308 -14.56755749876937
13.0 -0.3218405180183722 -14.942688556768637 -19.416285502569416 71.39641614455893 -19.416285502569416 71.39641614455893 -0.32301800298907424 -14.950743480993033
13.1 -0.3279854068931218 -15.324793490380888 -18.994520986883746 71.17000265319561 -18.994520986883746 71.17000265320564 -0.3291746367893786 -15.332950660243407
13.2 -0.33441219824009594 -15.705956765638566 -18.593757009054315 70.92826113887372 -18.59375700905431 70.92826113888374 -0.33561322633362 -15.71421576338902
13.3 -0.3411195137899605 -16.08621425444076 -18.212049766684462 70.6733435791662 -18.212049766684462 70.6733435791662 -0.34233238650927666 -16.094574680812467
13.4 -0.3481061157498474 -16.4656010144434 -17.84771084040062 70.40702567274417 -17.84771084040062 70.40702567274417 -0.34933087286369446 -16.474062490026885
13.5 -0.35537090278295774 -16.8441513118395 -17.499264505605197 70.13078454633803 -17.4992645056052 70.13078454633803 -0.35660757758845685 -16.852713478534355
13.6 -0.3629129061948534 -17.221898643440255 -17.165413585679698 69.8458580102372 -17.1654135856797 69.84585801024718 -0.3641615257105588 -17.230561165686108
13.7 -0.3707312863192592 -17.598875757737538 -16.84501187899789 69.55329027495861 -16.845011878997894 69.55329027495861 -0.37199187148126983 -17.607638323784585
13.8 -0.37882532909121414 -17.975114675297377 -16.537041700349175 69.25396760241418 -16.537041700349175 69.25396760241418 -0.3800978949535219 -17.983976998307458
13.9 -0.3871944427993056 -18.35064670826453 -16.240595440982005 68.94864638346665 -16.240595440982005 68.94864638346664 -0.38847899873690334 -18.359608527393334
14.0 -0.39583815500952213 -18.72550247921812 -15.954860315787565 68.63797545291453 -15.954860315787569 68.63797545291453 -0.39713470492344 -18.734563560539495
